SimulationType                        MonteCarlo
NumberOfCycles                        20000
NumberOfInitializationCycles          10000

Forcefield                            Local
CutOff                                14.0

Framework                             0
FrameworkName                         dragon
UnitCells                             maple
ExternalTemperature                   298
ExternalPressure                      100
 
ChargeMethod                  Ewald
EwaldPrecision                1e-6
UseChargesFromCIFFile yes

RemoveAtomNumberCodeFromLabel yes
Movies                        yes
WriteMoviesEvery              5000

Component 0 MoleculeName fly
            MoleculeDefinition Local
            MolFraction       1.0
            TranslationProbability 1.0
            RotationProbability    1.0
            ReinsertionProbability 1.0
            SwapProbability       1.0
            CreateNumberOfMolecules 0


