LAMMPS data file. msi2lmp v3.9.10 / 10 Mar 2023 / CGCMM for 6FBBA-BSBF

     75 atoms
     82 bonds
    138 angles
    216 dihedrals

  12 atom types
  17 bond types
  32 angle types
  50 dihedral types

   -10.953445729    10.945336762 xlo xhi
     0.015921694    11.102635204 ylo yhi
    -1.176586810     9.015665374 zlo zhi

Masses

   1  12.011150 # lcp
   2  12.011150 # cp
   3  12.011150 # c5
   4  12.011150 # c
   5  14.006700 # n
   6  12.011150 # c'
   7  14.006700 # ln
   8  15.999400 # o'
   9   1.007970 # h
  10  79.909000 # br
  11  18.998400 # f
  12   1.007970 # hn

Pair Coeffs # lj/cut/coul/long

   1   0.1479999981   3.6170487995 # lcp
   2   0.1479999981   3.6170487995 # cp
   3   0.1479999981   3.6170487995 # c5
   4   0.1599999990   3.4745050026 # c
   5   0.1669999743   3.5012320066 # n
   6   0.1479999981   3.6170487995 # c'
   7   0.1479999981   3.6170487995 # ln
   8   0.2280000124   2.8597848722 # o'
   9   0.0380000011   2.4499714540 # h
  10   0.0999449193   3.7954027279 # br
  11   0.0687685101   3.0808078941 # f
  12   0.0000000000   0.0000000000 # hn

Bond Coeffs # harmonic

   1   480.0000     1.3400 # lcp-cp
   2   280.0000     1.3400 # cp-c5
   3   363.4164     1.0800 # cp-h
   4   280.0000     1.3900 # c5-c5
   5   283.0924     1.5100 # c5-c
   6   480.0000     1.3400 # cp-cp
   7   223.6000     1.9200 # cp-br
   8   280.0000     1.4200 # cp-n
   9   388.0000     1.3200 # n-c'
  10   483.4512     1.0260 # n-hn
  11   351.2527     1.4720 # cp-c'
  12   283.0924     1.5100 # cp-c
  13   322.7158     1.5260 # c-c
  14   496.0000     1.3630 # c-f
  15   388.0000     1.3200 # c'-ln
  16   615.3220     1.2300 # c'-o'
  17   483.4512     1.0260 # ln-hn

Angle Coeffs # harmonic

   1    90.0000   120.0000 # cp-lcp-cp
   2    90.0000   120.0000 # lcp-cp-c5
   3    37.0000   120.0000 # c5-cp-h
   4    37.0000   120.0000 # lcp-cp-h
   5    90.0000   120.0000 # cp-c5-c5
   6    90.0000   120.0000 # cp-c5-c (c5-c5-c)
   7    44.2000   120.0000 # c5-c5-c
   8    90.0000   120.0000 # c5-c5-c5
   9    90.0000   120.0000 # cp-cp-c5
  10    37.0000   120.0000 # cp-cp-h
  11    90.0000   120.0000 # lcp-cp-cp
  12    96.0000   120.0000 # cp-cp-br
  13    96.0000   120.0000 # lcp-cp-br
  14    46.6000   110.5000 # c5-c-c5 (cp-c-cp)
  15    90.0000   120.0000 # cp-cp-cp
  16   102.0000   120.0000 # cp-cp-n
  17   111.0000   118.0000 # cp-n-c' (c-n-c')
  18    37.5000   115.0000 # cp-n-hn
  19    37.5000   115.0000 # c'-n-hn
  20    34.6799   120.0000 # cp-cp-c'
  21    44.2000   120.0000 # cp-cp-c
  22    46.6000   110.5000 # cp-c-c
  23    46.6000   110.5000 # cp-c-cp
  24    46.6000   110.5000 # c-c-c
  25    99.0000   107.8000 # c-c-f
  26    71.9700   109.1026 # f-c-f (pcff)
  27    68.0000   120.0000 # cp-c'-ln
  28    54.4949   120.0000 # ln-c'-o'
  29    54.4949   120.0000 # cp-c'-o'
  30    37.5000   115.0000 # c'-ln-hn
  31    53.5000   114.1000 # cp-c'-n (c-c'-n)     
  32    68.0000   120.0000 # n-c'-o'

Dihedral Coeffs # harmonic

  1     3.0000  -1   2 # cp-lcp-cp-c5
  2     3.0000  -1   2 # cp-lcp-cp-h
  3     3.0000  -1   2 # cp-lcp-cp-cp
  4     3.0000  -1   2 # cp-lcp-cp-br
  5     3.0000  -1   2 # lcp-cp-c5-c5
  6     3.0000  -1   2 # lcp-cp-c5-c
  7     3.0000  -1   2 # h-cp-c5-c5
  8     3.0000  -1   2 # h-cp-c5-c
  9     3.0000  -1   2 # cp-c5-c5-cp
 10     3.0000  -1   2 # cp-c5-c5-c5
 11     3.0000  -1   2 # cp-c5-c5-c
 12     3.0000  -1   2 # c5-c5-c5-c
 13     0.6750   1   4 # cp-c5-c-c5
 14     0.6750   1   4 # c5-c5-c-c5
 15     3.0000  -1   2 # cp-cp-c5-c5
 16     3.0000  -1   2 # c5-c5-c5-c5
 17     3.0000  -1   2 # lcp-cp-cp-c5
 18     3.0000  -1   2 # c5-cp-cp-br
 19     3.0000  -1   2 # lcp-cp-cp-h
 20     3.0000  -1   2 # h-cp-cp-br
 21     3.0000  -1   2 # cp-cp-c5-c
 22     3.0000  -1   2 # cp-cp-cp-c5
 23     3.0000  -1   2 # c5-cp-cp-h
 24     3.0000  -1   2 # cp-cp-cp-h
 25     3.0000  -1   2 # h-cp-cp-h
 26     3.0000  -1   2 # cp-cp-cp-cp
 27     3.0000  -1   2 # cp-cp-cp-n
 28     3.0000  -1   2 # cp-cp-cp-br
 29     3.0000  -1   2 # n-cp-cp-br
 30     3.0000  -1   2 # c5-cp-cp-n
 31     3.0000  -1   2 # n-cp-cp-h
 32     2.5000  -1   2 # cp-cp-n-c'
 33     2.5000  -1   2 # cp-cp-n-hn
 34     3.2000  -1   2 # cp-n-c'-c5 (c-c'-n-c)
 35     3.8000  -1   2 # cp-n-c'-o' (o'-c'-n-c)
 36     1.2000  -1   2 # hn-n-c'-cp (c-c'-n-hn)
 37     1.8000  -1   2 # hn-n-c'-o'
 38     3.0000  -1   2 # cp-cp-cp-c'
 39     3.0000  -1   2 # c'-cp-cp-h
 40     2.5000  -1   2 # cp-cp-c'-n
 41     2.5000  -1   2 # cp-cp-c'-o'
 42     3.0000  -1   2 # cp-cp-cp-c
 43     3.0000  -1   2 # c-cp-cp-h
 44     0.0000   1   2 # cp-cp-c-c
 45     0.6750   1   4 # cp-cp-c-cp
 46     0.1581   1   3 # cp-c-c-f
 47     0.1581   1   3 # c-c-c-f
 48     2.5000  -1   2 # cp-cp-c'-ln
 49     1.2000  -1   2 # cp-c'-ln-hn (c-c'-n-hn)
 50     1.8000  -1   2 # o'-c'-ln-hn


Atoms # full

      1      1   1 -0.100000    -6.393952563     7.771739089     6.727622345   0   0   0 # lcp
      2      1   2 -0.100000    -6.249178757     6.436523120     6.375911230   0   0   0 # cp
      3      1   3  0.000000    -6.195560251     6.073413992     4.985466860   0   0   0 # c5
      4      1   3  0.000000    -6.291313056     7.104832178     3.993088097   0   0   0 # c5
      5      1   2 -0.100000    -6.459447071     8.469759530     4.400010690   0   0   0 # cp
      6      1   2  0.080000    -6.509552101     8.777389275     5.755005573   0   0   0 # cp
      7      1   3  0.000000    -6.193502180     6.535941973     2.738041520   0   0   0 # c5
      8      1   3  0.000000    -6.036270874     5.115599750     2.876329188   0   0   0 # c5
      9      1   4  0.000000    -6.049727449     4.671940537     4.353763949   0   0   0 # c
     10      1   2 -0.100000    -5.908581737     4.308789299     1.690423157   0   0   0 # cp
     11      1   2 -0.100000    -5.936433677     4.916912466     0.443545836   0   0   0 # cp
     12      1   2 -0.100000    -6.089442131     6.307242981     0.316145941   0   0   0 # cp
     13      1   2 -0.100000    -6.218087959     7.125717676     1.432040830   0   0   0 # cp
     14      1   3  0.000000    -4.833321636     3.849324611     4.829112709   0   0   0 # c5
     15      1   3  0.000000    -5.215594106     2.586019245     5.372026132   0   0   0 # c5
     16      1   3  0.000000    -6.589916603     2.466929893     5.319485498   0   0   0 # c5
     17      1   3  0.000000    -7.141573277     3.654293666     4.736361708   0   0   0 # c5
     18      1   2 -0.100000    -8.567745070     3.766992909     4.598969611   0   0   0 # cp
     19      1   2 -0.100000    -9.379675515     2.729824619     5.034263236   0   0   0 # cp
     20      1   2 -0.100000    -8.835246062     1.568104613     5.605895489   0   0   0 # cp
     21      1   2 -0.100000    -7.463227080     1.415320903     5.757157813   0   0   0 # cp
     22      1   2 -0.100000    -4.226195497     1.713343115     5.906757540   0   0   0 # cp
     23      1   2  0.080000    -2.889668577     2.094153182     5.903503222   0   0   0 # cp
     24      1   2  0.110000    -2.488594093     3.350432798     5.337156196   0   0   0 # cp
     25      1   2 -0.100000    -3.448640071     4.218791845     4.830393882   0   0   0 # cp
     26      1   5 -0.390000    -1.115902866     3.840790577     5.316249678   0   0   0 # n
     27      1   2  0.179200     1.356987967     4.047343353     5.420022052   0   0   0 # cp
     28      1   2 -0.100000     1.369190536     5.391912680     5.835480938   0   0   0 # cp
     29      1   2 -0.100000     2.572519631     6.068568570     6.055257036   0   0   0 # cp
     30      1   2  0.000000     3.820612867     5.441162579     5.866089796   0   0   0 # cp
     31      1   2 -0.100000     3.791558442     4.088591561     5.457053739   0   0   0 # cp
     32      1   2 -0.100000     2.591746351     3.411469666     5.234351761   0   0   0 # cp
     33      1   4  0.000000     5.256043921     6.197932096     6.140338214   0   0   0 # c
     34      1   4  0.825000     5.155853059     7.770661318     6.261292255   0   0   0 # c
     35      1   4  0.825000     5.784433633     5.659690227     7.528433370   0   0   0 # c
     36      1   2  0.000000     6.251137933     5.891122294     4.861706457   0   0   0 # cp
     37      1   2 -0.100000     7.592518240     5.473322853     5.005787110   0   0   0 # cp
     38      1   2  0.000000     8.408707075     5.223405180     3.900052957   0   0   0 # cp
     39      1   2  0.179200     7.920381437     5.388215806     2.594811246   0   0   0 # cp
     40      1   2 -0.100000     6.597029501     5.816170786     2.432148418   0   0   0 # cp
     41      1   2 -0.100000     5.785054426     6.065774666     3.538614388   0   0   0 # cp
     42      1   6  0.200800     8.757769730     5.121896292     1.348560126   0   0   0 # c'
     43      1   7 -0.560000    10.014047259     4.717237272     1.434327794   0   0   0 # ln
     44      1   8 -0.380000     8.334357990     5.259252724     0.203570862   0   0   0 # o'
     45      1   9  0.100000    -6.188958656     5.666551317     7.137106874   0   0   0 # h
     46      1   9  0.100000    -6.564335702     9.256908184     3.662811883   0   0   0 # h
     47      1  10 -0.080000    -6.748663057    10.602635204     6.305689691   0   0   0 # br
     48      1   9  0.100000    -5.795159026     3.234689851     1.782479082   0   0   0 # h
     49      1   9  0.100000    -5.841526230     4.317200961    -0.453626414   0   0   0 # h
     50      1   9  0.100000    -6.107027391     6.740669970    -0.676586810   0   0   0 # h
     51      1   9  0.100000    -6.334886695     8.196508709     1.313431756   0   0   0 # h
     52      1   9  0.100000    -8.994301324     4.661947636     4.161211105   0   0   0 # h
     53      1   9  0.100000   -10.453445729     2.812766747     4.938825263   0   0   0 # h
     54      1   9  0.100000    -9.507359761     0.784284380     5.933763191   0   0   0 # h
     55      1   9  0.100000    -7.052000683     0.515921694     6.200520253   0   0   0 # h
     56      1   9  0.100000    -4.512434133     0.775969744     6.368152368   0   0   0 # h
     57      1  10 -0.080000    -1.682780134     0.961802318     6.903436942   0   0   0 # br
     58      1   9  0.100000    -3.176765932     5.185372167     4.420278573   0   0   0 # h
     59      1   9  0.100000     2.485088795     7.096087089     6.384590159   0   0   0 # h
     60      1   9  0.100000     4.713831930     3.538272563     5.304875973   0   0   0 # h
     61      1   9  0.100000     2.639305483     2.373370745     4.922105992   0   0   0 # h
     62      1  11 -0.275000     4.519855239     8.307947724     5.177709832   0   0   0 # f
     63      1  11 -0.275000     6.390829402     8.350395526     6.326175342   0   0   0 # f
     64      1  11 -0.275000     4.458580588     8.170755729     7.365120533   0   0   0 # f
     65      1  11 -0.275000     6.087121162     4.329132206     7.457365228   0   0   0 # f
     66      1  11 -0.275000     4.850517445     5.805354246     8.515665374   0   0   0 # f
     67      1  11 -0.275000     6.917497284     6.299416587     7.940331553   0   0   0 # f
     68      1   9  0.100000     8.052484131     5.323832866     5.973729432   0   0   0 # h
     69      1   9  0.100000     6.180141959     5.960284205     1.440735509   0   0   0 # h
     70      1   9  0.100000     4.768182224     6.394167344     3.351998177   0   0   0 # h
     71      1   6  0.200800     0.081260284     3.235534510     5.171763074   0   0   0 # c'
     72      1  12  0.280000    -1.064210598     4.838888205     5.102033100   0   0   0 # hn
     73      1   8 -0.380000     0.127268195     2.058009004     4.811398963   0   0   0 # o'
     74      1   9  0.100000     0.450882039     5.937631004     6.015171963   0   0   0 # h
     75      1  12  0.280000    10.445336762     4.618524360     2.356978146   0   0   0 # hn

Bonds

     1   1      1      2
     2   1      1      6
     3   2      2      3
     4   3      2     45
     5   4      3      4
     6   5      3      9
     7   2      5      4
     8   4      4      7
     9   6      5      6
    10   3      5     46
    11   7      6     47
    12   4      7      8
    13   2     13      7
    14   5      8      9
    15   2     10      8
    16   5     14      9
    17   5     17      9
    18   6     10     11
    19   3     10     48
    20   6     11     12
    21   3     11     49
    22   6     12     13
    23   3     12     50
    24   3     13     51
    25   4     14     15
    26   2     25     14
    27   4     15     16
    28   2     22     15
    29   4     16     17
    30   2     21     16
    31   2     18     17
    32   6     18     19
    33   3     18     52
    34   6     19     20
    35   3     19     53
    36   6     20     21
    37   3     20     54
    38   3     21     55
    39   6     22     23
    40   3     22     56
    41   6     23     24
    42   7     23     57
    43   6     24     25
    44   8     24     26
    45   3     25     58
    46   9     26     71
    47  10     26     72
    48   6     27     28
    49   6     27     32
    50  11     27     71
    51   6     28     29
    52   3     28     74
    53   6     29     30
    54   3     29     59
    55   6     30     31
    56  12     30     33
    57   6     31     32
    58   3     31     60
    59   3     32     61
    60  13     33     34
    61  13     33     35
    62  12     36     33
    63  14     34     62
    64  14     34     63
    65  14     34     64
    66  14     35     65
    67  14     35     66
    68  14     35     67
    69   6     36     37
    70   6     36     41
    71   6     37     38
    72   3     37     68
    73   6     38     39
    74   6     39     40
    75  11     39     42
    76   6     40     41
    77   3     40     69
    78   3     41     70
    79  15     42     43
    80  16     42     44
    81  17     43     75
    82  16     71     73

Angles

     1   1      2      1      6
     2   2      1      2      3
     3   3      3      2     45
     4   4      1      2     45
     5   5      2      3      4
     6   6      2      3      9
     7   7      4      3      9
     8   5      5      4      3
     9   8      3      4      7
    10   5      5      4      7
    11   9      6      5      4
    12   3      4      5     46
    13  10      6      5     46
    14  11      1      6      5
    15  12      5      6     47
    16  13      1      6     47
    17   8      8      7      4
    18   5     13      7      8
    19   5     13      7      4
    20   7      7      8      9
    21   5     10      8      7
    22   6     10      8      9
    23  14      8      9      3
    24  14      8      9     14
    25  14      8      9     17
    26  14      3      9     14
    27  14      3      9     17
    28  14     14      9     17
    29   9     11     10      8
    30  10     11     10     48
    31   3      8     10     48
    32  15     10     11     12
    33  10     10     11     49
    34  10     12     11     49
    35  15     11     12     13
    36  10     11     12     50
    37  10     13     12     50
    38   9     12     13      7
    39  10     12     13     51
    40   3      7     13     51
    41   7     15     14      9
    42   5     25     14     15
    43   6     25     14      9
    44   8     14     15     16
    45   5     22     15     14
    46   5     22     15     16
    47   8     15     16     17
    48   5     21     16     15
    49   5     21     16     17
    50   7     16     17      9
    51   5     18     17     16
    52   6     18     17      9
    53   9     19     18     17
    54  10     19     18     52
    55   3     17     18     52
    56  15     18     19     20
    57  10     18     19     53
    58  10     20     19     53
    59  15     19     20     21
    60  10     19     20     54
    61  10     21     20     54
    62   9     20     21     16
    63  10     20     21     55
    64   3     16     21     55
    65   9     23     22     15
    66  10     23     22     56
    67   3     15     22     56
    68  15     22     23     24
    69  12     22     23     57
    70  12     24     23     57
    71  15     23     24     25
    72  16     23     24     26
    73  16     25     24     26
    74   9     24     25     14
    75  10     24     25     58
    76   3     14     25     58
    77  17     24     26     71
    78  18     24     26     72
    79  19     71     26     72
    80  15     28     27     32
    81  20     28     27     71
    82  20     32     27     71
    83  15     27     28     29
    84  10     27     28     74
    85  10     29     28     74
    86  15     30     29     28
    87  10     30     29     59
    88  10     28     29     59
    89  15     29     30     31
    90  21     29     30     33
    91  21     31     30     33
    92  15     30     31     32
    93  10     30     31     60
    94  10     32     31     60
    95  15     31     32     27
    96  10     31     32     61
    97  10     27     32     61
    98  22     30     33     34
    99  22     30     33     35
   100  23     30     33     36
   101  24     34     33     35
   102  22     36     33     34
   103  22     36     33     35
   104  25     33     34     62
   105  25     33     34     63
   106  25     33     34     64
   107  26     62     34     63
   108  26     62     34     64
   109  26     63     34     64
   110  25     33     35     65
   111  25     33     35     66
   112  25     33     35     67
   113  26     65     35     66
   114  26     65     35     67
   115  26     66     35     67
   116  21     37     36     33
   117  21     41     36     33
   118  15     37     36     41
   119  15     38     37     36
   120  10     38     37     68
   121  10     36     37     68
   122  15     37     38     39
   123  15     38     39     40
   124  20     38     39     42
   125  20     40     39     42
   126  15     39     40     41
   127  10     39     40     69
   128  10     41     40     69
   129  15     40     41     36
   130  10     40     41     70
   131  10     36     41     70
   132  27     39     42     43
   133  28     43     42     44
   134  29     39     42     44
   135  30     42     43     75
   136  31     27     71     26
   137  29     27     71     73
   138  32     26     71     73

Dihedrals

     1   1      6      1      2      3
     2   2      6      1      2     45
     3   3      2      1      6      5
     4   4      2      1      6     47
     5   5      1      2      3      4
     6   6      1      2      3      9
     7   7     45      2      3      4
     8   8     45      2      3      9
     9   9      2      3      4      5
    10  10      2      3      4      7
    11  11      5      4      3      9
    12  12      7      4      3      9
    13  13      2      3      9      8
    14  13      2      3      9     14
    15  13      2      3      9     17
    16  14      4      3      9      8
    17  14      4      3      9     14
    18  14      4      3      9     17
    19  15      6      5      4      3
    20   7     46      5      4      3
    21  15      6      5      4      7
    22   7     46      5      4      7
    23  16      3      4      7      8
    24  10     13      7      4      3
    25  10      5      4      7      8
    26   9      5      4      7     13
    27  17      1      6      5      4
    28  18      4      5      6     47
    29  19      1      6      5     46
    30  20     46      5      6     47
    31  12      4      7      8      9
    32  10     10      8      7      4
    33  11     13      7      8      9
    34   9     13      7      8     10
    35  15     12     13      7      8
    36   7     51     13      7      8
    37  15     12     13      7      4
    38   7     51     13      7      4
    39  14      7      8      9      3
    40  14      7      8      9     14
    41  14      7      8      9     17
    42  13     10      8      9      3
    43  13     10      8      9     14
    44  13     10      8      9     17
    45  15     11     10      8      7
    46   7     48     10      8      7
    47  21     11     10      8      9
    48   8     48     10      8      9
    49  14     15     14      9      8
    50  13     25     14      9      8
    51  14     15     14      9      3
    52  13     25     14      9      3
    53  14     15     14      9     17
    54  13     25     14      9     17
    55  14     16     17      9      8
    56  13     18     17      9      8
    57  14     16     17      9      3
    58  13     18     17      9      3
    59  14     16     17      9     14
    60  13     18     17      9     14
    61  22     12     11     10      8
    62  23      8     10     11     49
    63  24     12     11     10     48
    64  25     48     10     11     49
    65  26     10     11     12     13
    66  24     10     11     12     50
    67  24     13     12     11     49
    68  25     49     11     12     50
    69  22     11     12     13      7
    70  24     11     12     13     51
    71  23      7     13     12     50
    72  25     50     12     13     51
    73  12     16     15     14      9
    74  11     22     15     14      9
    75  10     25     14     15     16
    76   9     25     14     15     22
    77  15     24     25     14     15
    78   7     58     25     14     15
    79  21     24     25     14      9
    80   8     58     25     14      9
    81  16     14     15     16     17
    82  10     21     16     15     14
    83  10     22     15     16     17
    84   9     22     15     16     21
    85  15     23     22     15     14
    86   7     56     22     15     14
    87  15     23     22     15     16
    88   7     56     22     15     16
    89  12     15     16     17      9
    90  10     18     17     16     15
    91  11     21     16     17      9
    92   9     21     16     17     18
    93  15     20     21     16     15
    94   7     55     21     16     15
    95  15     20     21     16     17
    96   7     55     21     16     17
    97  15     19     18     17     16
    98   7     52     18     17     16
    99  21     19     18     17      9
   100   8     52     18     17      9
   101  22     20     19     18     17
   102  23     17     18     19     53
   103  24     20     19     18     52
   104  25     52     18     19     53
   105  26     18     19     20     21
   106  24     18     19     20     54
   107  24     21     20     19     53
   108  25     53     19     20     54
   109  22     19     20     21     16
   110  24     19     20     21     55
   111  23     16     21     20     54
   112  25     54     20     21     55
   113  22     24     23     22     15
   114  18     15     22     23     57
   115  24     24     23     22     56
   116  20     56     22     23     57
   117  26     22     23     24     25
   118  27     22     23     24     26
   119  28     25     24     23     57
   120  29     26     24     23     57
   121  22     23     24     25     14
   122  24     23     24     25     58
   123  30     14     25     24     26
   124  31     26     24     25     58
   125  32     23     24     26     71
   126  33     23     24     26     72
   127  32     25     24     26     71
   128  33     25     24     26     72
   129  34     24     26     71     27
   130  35     24     26     71     73
   131  36     72     26     71     27
   132  37     72     26     71     73
   133  26     32     27     28     29
   134  24     32     27     28     74
   135  38     29     28     27     71
   136  39     71     27     28     74
   137  26     28     27     32     31
   138  24     28     27     32     61
   139  38     31     32     27     71
   140  39     71     27     32     61
   141  40     28     27     71     26
   142  41     28     27     71     73
   143  40     32     27     71     26
   144  41     32     27     71     73
   145  26     27     28     29     30
   146  24     27     28     29     59
   147  24     30     29     28     74
   148  25     74     28     29     59
   149  26     28     29     30     31
   150  42     28     29     30     33
   151  24     31     30     29     59
   152  43     33     30     29     59
   153  26     29     30     31     32
   154  24     29     30     31     60
   155  42     32     31     30     33
   156  43     33     30     31     60
   157  44     29     30     33     34
   158  44     29     30     33     35
   159  45     29     30     33     36
   160  44     31     30     33     34
   161  44     31     30     33     35
   162  45     31     30     33     36
   163  26     30     31     32     27
   164  24     30     31     32     61
   165  24     27     32     31     60
   166  25     60     31     32     61
   167  46     30     33     34     62
   168  46     30     33     34     63
   169  46     30     33     34     64
   170  47     35     33     34     62
   171  47     35     33     34     63
   172  47     35     33     34     64
   173  46     36     33     34     62
   174  46     36     33     34     63
   175  46     36     33     34     64
   176  46     30     33     35     65
   177  46     30     33     35     66
   178  46     30     33     35     67
   179  47     34     33     35     65
   180  47     34     33     35     66
   181  47     34     33     35     67
   182  46     36     33     35     65
   183  46     36     33     35     66
   184  46     36     33     35     67
   185  45     37     36     33     30
   186  45     41     36     33     30
   187  44     37     36     33     34
   188  44     41     36     33     34
   189  44     37     36     33     35
   190  44     41     36     33     35
   191  42     38     37     36     33
   192  43     33     36     37     68
   193  26     41     36     37     38
   194  24     41     36     37     68
   195  42     40     41     36     33
   196  43     33     36     41     70
   197  26     37     36     41     40
   198  24     37     36     41     70
   199  26     36     37     38     39
   200  24     39     38     37     68
   201  26     37     38     39     40
   202  38     37     38     39     42
   203  26     38     39     40     41
   204  24     38     39     40     69
   205  38     41     40     39     42
   206  39     42     39     40     69
   207  48     38     39     42     43
   208  41     38     39     42     44
   209  48     40     39     42     43
   210  41     40     39     42     44
   211  26     39     40     41     36
   212  24     39     40     41     70
   213  24     36     41     40     69
   214  25     69     40     41     70
   215  49     39     42     43     75
   216  50     44     42     43     75


