LAMMPS data file. msi2lmp v3.9.10 / 10 Mar 2023 / CGCMM for 6FBBA-SBF

     75 atoms
     82 bonds
    138 angles
    216 dihedrals

  11 atom types
  16 bond types
  30 angle types
  45 dihedral types

   -11.118011977    10.805361074 xlo xhi
     0.805283372    10.952762303 ylo yhi
    -1.507094807     8.508067664 zlo zhi

Masses

   1  12.011150 # lcp
   2  12.011150 # cp
   3  12.011150 # c5
   4  12.011150 # c
   5  14.006700 # n
   6  12.011150 # c'
   7  14.006700 # ln
   8  15.999400 # o'
   9   1.007970 # h
  10  18.998400 # f
  11   1.007970 # hn

Pair Coeffs # lj/cut/coul/long

   1   0.1479999981   3.6170487995 # lcp
   2   0.1479999981   3.6170487995 # cp
   3   0.1479999981   3.6170487995 # c5
   4   0.1599999990   3.4745050026 # c
   5   0.1669999743   3.5012320066 # n
   6   0.1479999981   3.6170487995 # c'
   7   0.1669999743   3.5012320066 # ln
   8   0.2280000124   2.8597848722 # o'
   9   0.0380000011   2.4499714540 # h
  10   0.0687685101   3.0808078941 # f
  11   0.0000000000   0.0000000000 # hn

Bond Coeffs # harmonic

   1   480.0000     1.3400 # lcp-cp
   2   280.0000     1.3400 # cp-c5
   3   363.4164     1.0800 # cp-h
   4   280.0000     1.3900 # c5-c5
   5   283.0924     1.5100 # c5-c
   6   480.0000     1.3400 # cp-cp
   7   280.0000     1.4200 # cp-n
   8   388.0000     1.3200 # n-c'
   9   483.4512     1.0260 # n-hn
  10   351.2527     1.4720 # cp-c'
  11   283.0924     1.5100 # cp-c
  12   322.7158     1.5260 # c-c
  13   496.0000     1.3630 # c-f
  14   388.0000     1.3200 # c'-ln
  15   615.3220     1.2300 # c'-o'
  16   483.4512     1.0260 # ln-hn

Angle Coeffs # harmonic

   1    90.0000   120.0000 # cp-lcp-cp
   2    90.0000   120.0000 # lcp-cp-c5
   3    37.0000   120.0000 # c5-cp-h
   4    37.0000   120.0000 # lcp-cp-h
   5    90.0000   120.0000 # cp-c5-c5
   6    90.0000   120.0000 # cp-c5-c (c5-c5-c)
   7    44.2000   120.0000 # c5-c5-c
   8    90.0000   120.0000 # c5-c5-c5
   9    90.0000   120.0000 # cp-cp-c5
  10    37.0000   120.0000 # cp-cp-h
  11    90.0000   120.0000 # lcp-cp-cp
  12    46.6000   110.5000 # c5-c-c5 (cp-c-cp)
  13    90.0000   120.0000 # cp-cp-cp
  14   102.0000   120.0000 # cp-cp-n
  15   111.0000   118.0000 # cp-n-c' (c-n-c')
  16    37.5000   115.0000 # cp-n-hn
  17    37.5000   115.0000 # c'-n-hn
  18    34.6799   120.0000 # cp-cp-c'
  19    44.2000   120.0000 # cp-cp-c
  20    46.6000   110.5000 # cp-c-c
  21    46.6000   110.5000 # cp-c-cp
  22    46.6000   110.5000 # c-c-c
  23    99.0000   107.8000 # c-c-f
  24    71.9700   109.1026 # f-c-f (pcff)
  25    68.0000   120.0000 # cp-c'-ln
  26    54.4949   120.0000 # ln-c'-o'
  27    54.4949   120.0000 # cp-c'-o'
  28    37.5000   115.0000 # c'-ln-hn
  29    53.5000   114.1000 # cp-c'-n (c-c'-n)  
  30    68.0000   120.0000 # n-c'-o'

Dihedral Coeffs # harmonic

  1     3.0000  -1   2 # cp-lcp-cp-c5
  2     3.0000  -1   2 # cp-lcp-cp-h
  3     3.0000  -1   2 # cp-lcp-cp-cp
  4     3.0000  -1   2 # lcp-cp-c5-c5
  5     3.0000  -1   2 # lcp-cp-c5-c
  6     3.0000  -1   2 # h-cp-c5-c5
  7     3.0000  -1   2 # h-cp-c5-c
  8     3.0000  -1   2 # cp-c5-c5-cp
  9     3.0000  -1   2 # cp-c5-c5-c5
 10     3.0000  -1   2 # cp-c5-c5-c
 11     3.0000  -1   2 # c5-c5-c5-c
 12     0.6750   1   4 # cp-c5-c-c5
 13     0.6750   1   4 # c5-c5-c-c5
 14     3.0000  -1   2 # cp-cp-c5-c5
 15     3.0000  -1   2 # c5-c5-c5-c5
 16     3.0000  -1   2 # lcp-cp-cp-c5
 17     3.0000  -1   2 # c5-cp-cp-h
 18     3.0000  -1   2 # lcp-cp-cp-h
 19     3.0000  -1   2 # h-cp-cp-h
 20     3.0000  -1   2 # cp-cp-c5-c
 21     3.0000  -1   2 # cp-cp-cp-c5
 22     3.0000  -1   2 # cp-cp-cp-h
 23     3.0000  -1   2 # cp-cp-cp-cp
 24     3.0000  -1   2 # cp-cp-cp-n
 25     3.0000  -1   2 # n-cp-cp-h
 26     3.0000  -1   2 # c5-cp-cp-n
 27     2.5000  -1   2 # cp-cp-n-c'
 28     2.5000  -1   2 # cp-cp-n-hn
 29     3.2000  -1   2 # cp-n-c'-c5 (c-c'-n-c)
 30     3.8000  -1   2 # cp-n-c'-o' (o'-c'-n-c)
 31     1.2000  -1   2 # hn-n-c'-cp (c-c'-n-hn)
 32     1.8000  -1   2 # hn-n-c'-o'
 33     3.0000  -1   2 # cp-cp-cp-c'
 34     3.0000  -1   2 # c'-cp-cp-h
 35     2.5000  -1   2 # cp-cp-c'-n
 36     2.5000  -1   2 # cp-cp-c'-o'
 37     3.0000  -1   2 # cp-cp-cp-c
 38     3.0000  -1   2 # c-cp-cp-h
 39     0.0000   1   2 # cp-cp-c-c
 40     0.6750   1   4 # cp-cp-c-cp
 41     0.1581   1   3 # cp-c-c-f
 42     0.1581   1   3 # c-c-c-f
 43     2.5000  -1   2 # cp-cp-c'-ln
 44     1.2000  -1   2 # cp-c'-ln-hn (c-c'-n-hn)
 45     1.8000  -1   2 # o'-c'-ln-hn

Atoms # full

      1      1   1 -0.100000    -5.674424367     8.997518547     4.955786435   0   0   0 # lcp
      2      1   2 -0.100000    -5.833933699     7.663229628     5.299792148   0   0   0 # cp
      3      1   3  0.000000    -5.938275537     6.670231357     4.261300652   0   0   0 # c5
      4      1   3  0.000000    -5.876466468     7.089223464     2.889604717   0   0   0 # c5
      5      1   2 -0.100000    -5.720005312     8.478739322     2.575970265   0   0   0 # cp
      6      1   2 -0.100000    -5.618372287     9.399905182     3.611429067   0   0   0 # cp
      7      1   3  0.000000    -5.956894578     5.978202740     2.072460770   0   0   0 # c5
      8      1   3  0.000000    -6.058935663     4.801399669     2.887352735   0   0   0 # c5
      9      1   4  0.000000    -6.049897430     5.135827041     4.393299239   0   0   0 # c
     10      1   2 -0.100000    -6.135447533     3.513366723     2.247066717   0   0   0 # cp
     11      1   2 -0.100000    -6.112238650     3.435768719     0.861960170   0   0   0 # cp
     12      1   2 -0.100000    -6.012343865     4.591940487     0.070896414   0   0   0 # cp
     13      1   2 -0.100000    -5.932825057     5.855435279     0.644270622   0   0   0 # cp
     14      1   3  0.000000    -4.930682922     4.471967048     5.218939836   0   0   0 # c5
     15      1   3  0.000000    -5.441003352     3.679805949     6.295240537   0   0   0 # c5
     16      1   3  0.000000    -6.820986583     3.757416975     6.293310179   0   0   0 # c5
     17      1   3  0.000000    -7.242081921     4.605129073     5.212737097   0   0   0 # c5
     18      1   2 -0.100000    -8.644265771     4.856066653     5.028655495   0   0   0 # cp
     19      1   2 -0.100000    -9.561282636     4.281310340     5.897185006   0   0   0 # cp
     20      1   2 -0.100000    -9.145827685     3.454255992     6.954134434   0   0   0 # cp
     21      1   2 -0.100000    -7.800681380     3.181711152     7.169749059   0   0   0 # cp
     22      1   2 -0.100000    -4.535832031     3.019309969     7.181053399   0   0   0 # cp
     23      1   2 -0.100000    -3.163539594     3.178109028     6.992917454   0   0   0 # cp
     24      1   2  0.110000    -2.644715907     3.980647103     5.950621316   0   0   0 # cp
     25      1   2 -0.100000    -3.509052979     4.612301229     5.067620418   0   0   0 # cp
     26      1   5 -0.390000    -1.229071270     4.254857570     5.788824635   0   0   0 # n
     27      1   2  0.179200     1.228097755     4.493113780     6.009351744   0   0   0 # cp
     28      1   2 -0.100000     1.317903787     5.685126176     5.264672058   0   0   0 # cp
     29      1   2 -0.100000     2.555111170     6.274650339     4.990599571   0   0   0 # cp
     30      1   2  0.000000     3.763558155     5.696212905     5.426041218   0   0   0 # cp
     31      1   2 -0.100000     3.657609561     4.501990760     6.175991543   0   0   0 # cp
     32      1   2 -0.100000     2.421998141     3.918217269     6.463285611   0   0   0 # cp
     33      1   4  0.000000     5.239138468     6.358062703     5.113801020   0   0   0 # c
     34      1   4  0.825000     5.227231072     7.529601687     4.051896655   0   0   0 # c
     35      1   4  0.825000     5.749743743     6.979299388     6.474925189   0   0   0 # c
     36      1   2  0.000000     6.199845353     5.174371063     4.494504265   0   0   0 # cp
     37      1   2 -0.100000     7.521487300     4.938061809     4.931886460   0   0   0 # cp
     38      1   2  0.000000     8.314877276     3.936380961     4.367334523   0   0   0 # cp
     39      1   2  0.179200     7.821276845     3.127040536     3.331883023   0   0   0 # cp
     40      1   2 -0.100000     6.515968293     3.352713396     2.879620118   0   0   0 # cp
     41      1   2 -0.100000     5.727331969     4.353986585     3.444455904   0   0   0 # cp
     42      1   6  0.200800     8.632699495     2.016383559     2.676078649   0   0   0 # c'
     43      1   7 -0.560000     9.869927894     1.750903458     3.056493946   0   0   0 # ln
     44      1   8 -0.380000     8.207194099     1.305283372     1.769209465   0   0   0 # o'
     45      1   9  0.100000    -5.878265457     7.358695595     6.339292363   0   0   0 # h
     46      1   9  0.100000    -5.679764697     8.810076932     1.544924252   0   0   0 # h
     47      1   9  0.100000    -5.497483089    10.452762303     3.387033548   0   0   0 # h
     48      1   9  0.100000    -6.209243521     2.617901129     2.853430520   0   0   0 # h
     49      1   9  0.100000    -6.170360574     2.471041495     0.372723767   0   0   0 # h
     50      1   9  0.100000    -5.996329665     4.486020761    -1.007094807   0   0   0 # h
     51      1   9  0.100000    -5.852481004     6.735985311     0.017935245   0   0   0 # h
     52      1   9  0.100000    -8.970651535     5.493634108     4.215494381   0   0   0 # h
     53      1   9  0.100000   -10.618011977     4.472023963     5.766241167   0   0   0 # h
     54      1   9  0.100000    -9.897946283     3.029151432     7.608251984   0   0   0 # h
     55      1   9  0.100000    -7.488155662     2.545596166     7.989672727   0   0   0 # h
     56      1   9  0.100000    -4.903032718     2.422861312     8.008067664   0   0   0 # h
     57      1   9  0.100000    -2.494746993     2.695871243     7.694323648   0   0   0 # h
     58      1   9  0.100000    -3.140073391     5.243788572     4.267286500   0   0   0 # h
     59      1   9  0.100000     2.525303305     7.196439483     4.423532304   0   0   0 # h
     60      1   9  0.100000     4.546408707     4.003329898     6.547331921   0   0   0 # h
     61      1   9  0.100000     2.409809717     3.001807597     7.044077673   0   0   0 # h
     62      1  10 -0.275000     4.629112119     7.135565777     2.888123608   0   0   0 # f
     63      1  10 -0.275000     6.492791530     7.931425741     3.729780087   0   0   0 # f
     64      1  10 -0.275000     4.545629184     8.628288535     4.491247366   0   0   0 # f
     65      1  10 -0.275000     5.985898596     6.006227499     7.404493207   0   0   0 # f
     66      1  10 -0.275000     4.829993893     7.833783260     7.015040827   0   0   0 # f
     67      1  10 -0.275000     6.917037179     7.671749376     6.330657223   0   0   0 # f
     68      1   9  0.100000     7.984173942     5.519219958     5.718833408   0   0   0 # h
     69      1   9  0.100000     6.095892434     2.752791316     2.078921603   0   0   0 # h
     70      1   9  0.100000     4.725286255     4.485812902     3.050486178   0   0   0 # h
     71      1   6  0.200800    -0.093866910     3.798300247     6.359065461   0   0   0 # c'
     72      1  11  0.280000    -1.055228579     4.928193227     5.040615707   0   0   0 # hn
     73      1   8 -0.380000    -0.132052388     2.838094275     7.130980977   0   0   0 # o'
     74      1   9  0.100000     0.434034665     6.194989682     4.901140192   0   0   0 # h
     75      1  11  0.280000    10.305361074     2.327219275     3.780975572   0   0   0 # hn

Bonds

     1   1      1      2
     2   1      1      6
     3   2      2      3
     4   3      2     45
     5   4      3      4
     6   5      3      9
     7   2      5      4
     8   4      4      7
     9   6      5      6
    10   3      5     46
    11   3      6     47
    12   4      7      8
    13   2     13      7
    14   5      8      9
    15   2     10      8
    16   5     14      9
    17   5     17      9
    18   6     10     11
    19   3     10     48
    20   6     11     12
    21   3     11     49
    22   6     12     13
    23   3     12     50
    24   3     13     51
    25   4     14     15
    26   2     25     14
    27   4     15     16
    28   2     22     15
    29   4     16     17
    30   2     21     16
    31   2     18     17
    32   6     18     19
    33   3     18     52
    34   6     19     20
    35   3     19     53
    36   6     20     21
    37   3     20     54
    38   3     21     55
    39   6     22     23
    40   3     22     56
    41   6     23     24
    42   3     23     57
    43   6     24     25
    44   7     24     26
    45   3     25     58
    46   8     26     71
    47   9     26     72
    48   6     27     28
    49   6     27     32
    50  10     27     71
    51   6     28     29
    52   3     28     74
    53   6     29     30
    54   3     29     59
    55   6     30     31
    56  11     30     33
    57   6     31     32
    58   3     31     60
    59   3     32     61
    60  12     33     34
    61  12     33     35
    62  11     36     33
    63  13     34     62
    64  13     34     63
    65  13     34     64
    66  13     35     65
    67  13     35     66
    68  13     35     67
    69   6     36     37
    70   6     36     41
    71   6     37     38
    72   3     37     68
    73   6     38     39
    74   6     39     40
    75  10     39     42
    76   6     40     41
    77   3     40     69
    78   3     41     70
    79  14     42     43
    80  15     42     44
    81  16     43     75
    82  15     71     73

Angles

     1   1      2      1      6
     2   2      1      2      3
     3   3      3      2     45
     4   4      1      2     45
     5   5      2      3      4
     6   6      2      3      9
     7   7      4      3      9
     8   5      5      4      3
     9   8      3      4      7
    10   5      5      4      7
    11   9      6      5      4
    12   3      4      5     46
    13  10      6      5     46
    14  11      1      6      5
    15  10      5      6     47
    16   4      1      6     47
    17   8      8      7      4
    18   5     13      7      8
    19   5     13      7      4
    20   7      7      8      9
    21   5     10      8      7
    22   6     10      8      9
    23  12      8      9      3
    24  12      8      9     14
    25  12      8      9     17
    26  12      3      9     14
    27  12      3      9     17
    28  12     14      9     17
    29   9     11     10      8
    30  10     11     10     48
    31   3      8     10     48
    32  13     10     11     12
    33  10     10     11     49
    34  10     12     11     49
    35  13     11     12     13
    36  10     11     12     50
    37  10     13     12     50
    38   9     12     13      7
    39  10     12     13     51
    40   3      7     13     51
    41   7     15     14      9
    42   5     25     14     15
    43   6     25     14      9
    44   8     14     15     16
    45   5     22     15     14
    46   5     22     15     16
    47   8     15     16     17
    48   5     21     16     15
    49   5     21     16     17
    50   7     16     17      9
    51   5     18     17     16
    52   6     18     17      9
    53   9     19     18     17
    54  10     19     18     52
    55   3     17     18     52
    56  13     18     19     20
    57  10     18     19     53
    58  10     20     19     53
    59  13     19     20     21
    60  10     19     20     54
    61  10     21     20     54
    62   9     20     21     16
    63  10     20     21     55
    64   3     16     21     55
    65   9     23     22     15
    66  10     23     22     56
    67   3     15     22     56
    68  13     22     23     24
    69  10     22     23     57
    70  10     24     23     57
    71  13     23     24     25
    72  14     23     24     26
    73  14     25     24     26
    74   9     24     25     14
    75  10     24     25     58
    76   3     14     25     58
    77  15     24     26     71
    78  16     24     26     72
    79  17     71     26     72
    80  13     28     27     32
    81  18     28     27     71
    82  18     32     27     71
    83  13     27     28     29
    84  10     27     28     74
    85  10     29     28     74
    86  13     30     29     28
    87  10     30     29     59
    88  10     28     29     59
    89  13     29     30     31
    90  19     29     30     33
    91  19     31     30     33
    92  13     30     31     32
    93  10     30     31     60
    94  10     32     31     60
    95  13     31     32     27
    96  10     31     32     61
    97  10     27     32     61
    98  20     30     33     34
    99  20     30     33     35
   100  21     30     33     36
   101  22     34     33     35
   102  20     36     33     34
   103  20     36     33     35
   104  23     33     34     62
   105  23     33     34     63
   106  23     33     34     64
   107  24     62     34     63
   108  24     62     34     64
   109  24     63     34     64
   110  23     33     35     65
   111  23     33     35     66
   112  23     33     35     67
   113  24     65     35     66
   114  24     65     35     67
   115  24     66     35     67
   116  19     37     36     33
   117  19     41     36     33
   118  13     37     36     41
   119  13     38     37     36
   120  10     38     37     68
   121  10     36     37     68
   122  13     37     38     39
   123  13     38     39     40
   124  18     38     39     42
   125  18     40     39     42
   126  13     39     40     41
   127  10     39     40     69
   128  10     41     40     69
   129  13     40     41     36
   130  10     40     41     70
   131  10     36     41     70
   132  25     39     42     43
   133  26     43     42     44
   134  27     39     42     44
   135  28     42     43     75
   136  29     27     71     26
   137  27     27     71     73
   138  30     26     71     73

Dihedrals

     1   1      6      1      2      3
     2   2      6      1      2     45
     3   3      2      1      6      5
     4   2      2      1      6     47
     5   4      1      2      3      4
     6   5      1      2      3      9
     7   6     45      2      3      4
     8   7     45      2      3      9
     9   8      2      3      4      5
    10   9      2      3      4      7
    11  10      5      4      3      9
    12  11      7      4      3      9
    13  12      2      3      9      8
    14  12      2      3      9     14
    15  12      2      3      9     17
    16  13      4      3      9      8
    17  13      4      3      9     14
    18  13      4      3      9     17
    19  14      6      5      4      3
    20   6     46      5      4      3
    21  14      6      5      4      7
    22   6     46      5      4      7
    23  15      3      4      7      8
    24   9     13      7      4      3
    25   9      5      4      7      8
    26   8      5      4      7     13
    27  16      1      6      5      4
    28  17      4      5      6     47
    29  18      1      6      5     46
    30  19     46      5      6     47
    31  11      4      7      8      9
    32   9     10      8      7      4
    33  10     13      7      8      9
    34   8     13      7      8     10
    35  14     12     13      7      8
    36   6     51     13      7      8
    37  14     12     13      7      4
    38   6     51     13      7      4
    39  13      7      8      9      3
    40  13      7      8      9     14
    41  13      7      8      9     17
    42  12     10      8      9      3
    43  12     10      8      9     14
    44  12     10      8      9     17
    45  14     11     10      8      7
    46   6     48     10      8      7
    47  20     11     10      8      9
    48   7     48     10      8      9
    49  13     15     14      9      8
    50  12     25     14      9      8
    51  13     15     14      9      3
    52  12     25     14      9      3
    53  13     15     14      9     17
    54  12     25     14      9     17
    55  13     16     17      9      8
    56  12     18     17      9      8
    57  13     16     17      9      3
    58  12     18     17      9      3
    59  13     16     17      9     14
    60  12     18     17      9     14
    61  21     12     11     10      8
    62  17      8     10     11     49
    63  22     12     11     10     48
    64  19     48     10     11     49
    65  23     10     11     12     13
    66  22     10     11     12     50
    67  22     13     12     11     49
    68  19     49     11     12     50
    69  21     11     12     13      7
    70  22     11     12     13     51
    71  17      7     13     12     50
    72  19     50     12     13     51
    73  11     16     15     14      9
    74  10     22     15     14      9
    75   9     25     14     15     16
    76   8     25     14     15     22
    77  14     24     25     14     15
    78   6     58     25     14     15
    79  20     24     25     14      9
    80   7     58     25     14      9
    81  15     14     15     16     17
    82   9     21     16     15     14
    83   9     22     15     16     17
    84   8     22     15     16     21
    85  14     23     22     15     14
    86   6     56     22     15     14
    87  14     23     22     15     16
    88   6     56     22     15     16
    89  11     15     16     17      9
    90   9     18     17     16     15
    91  10     21     16     17      9
    92   8     21     16     17     18
    93  14     20     21     16     15
    94   6     55     21     16     15
    95  14     20     21     16     17
    96   6     55     21     16     17
    97  14     19     18     17     16
    98   6     52     18     17     16
    99  20     19     18     17      9
   100   7     52     18     17      9
   101  21     20     19     18     17
   102  17     17     18     19     53
   103  22     20     19     18     52
   104  19     52     18     19     53
   105  23     18     19     20     21
   106  22     18     19     20     54
   107  22     21     20     19     53
   108  19     53     19     20     54
   109  21     19     20     21     16
   110  22     19     20     21     55
   111  17     16     21     20     54
   112  19     54     20     21     55
   113  21     24     23     22     15
   114  17     15     22     23     57
   115  22     24     23     22     56
   116  19     56     22     23     57
   117  23     22     23     24     25
   118  24     22     23     24     26
   119  22     25     24     23     57
   120  25     26     24     23     57
   121  21     23     24     25     14
   122  22     23     24     25     58
   123  26     14     25     24     26
   124  25     26     24     25     58
   125  27     23     24     26     71
   126  28     23     24     26     72
   127  27     25     24     26     71
   128  28     25     24     26     72
   129  29     24     26     71     27
   130  30     24     26     71     73
   131  31     72     26     71     27
   132  32     72     26     71     73
   133  23     32     27     28     29
   134  22     32     27     28     74
   135  33     29     28     27     71
   136  34     71     27     28     74
   137  23     28     27     32     31
   138  22     28     27     32     61
   139  33     31     32     27     71
   140  34     71     27     32     61
   141  35     28     27     71     26
   142  36     28     27     71     73
   143  35     32     27     71     26
   144  36     32     27     71     73
   145  23     27     28     29     30
   146  22     27     28     29     59
   147  22     30     29     28     74
   148  19     74     28     29     59
   149  23     28     29     30     31
   150  37     28     29     30     33
   151  22     31     30     29     59
   152  38     33     30     29     59
   153  23     29     30     31     32
   154  22     29     30     31     60
   155  37     32     31     30     33
   156  38     33     30     31     60
   157  39     29     30     33     34
   158  39     29     30     33     35
   159  40     29     30     33     36
   160  39     31     30     33     34
   161  39     31     30     33     35
   162  40     31     30     33     36
   163  23     30     31     32     27
   164  22     30     31     32     61
   165  22     27     32     31     60
   166  19     60     31     32     61
   167  41     30     33     34     62
   168  41     30     33     34     63
   169  41     30     33     34     64
   170  42     35     33     34     62
   171  42     35     33     34     63
   172  42     35     33     34     64
   173  41     36     33     34     62
   174  41     36     33     34     63
   175  41     36     33     34     64
   176  41     30     33     35     65
   177  41     30     33     35     66
   178  41     30     33     35     67
   179  42     34     33     35     65
   180  42     34     33     35     66
   181  42     34     33     35     67
   182  41     36     33     35     65
   183  41     36     33     35     66
   184  41     36     33     35     67
   185  40     37     36     33     30
   186  40     41     36     33     30
   187  39     37     36     33     34
   188  39     41     36     33     34
   189  39     37     36     33     35
   190  39     41     36     33     35
   191  37     38     37     36     33
   192  38     33     36     37     68
   193  23     41     36     37     38
   194  22     41     36     37     68
   195  37     40     41     36     33
   196  38     33     36     41     70
   197  23     37     36     41     40
   198  22     37     36     41     70
   199  23     36     37     38     39
   200  22     39     38     37     68
   201  23     37     38     39     40
   202  33     37     38     39     42
   203  23     38     39     40     41
   204  22     38     39     40     69
   205  33     41     40     39     42
   206  34     42     39     40     69
   207  43     38     39     42     43
   208  36     38     39     42     44
   209  43     40     39     42     43
   210  36     40     39     42     44
   211  23     39     40     41     36
   212  22     39     40     41     70
   213  22     36     41     40     69
   214  19     69     40     41     70
   215  44     39     42     43     75
   216  45     44     42     43     75


