LAMMPS data file via write_data, version 2 Aug 2023, timestep = 20000, units = metal

124 atoms
4 atom types

0.20609558684971319 17.663904413150338 xlo xhi
0.17231097901352666 14.768315562486622 ylo yhi
0.1598151098106788 13.697327859489484 zlo zhi
-4.111274310095009 -3.9146763398686453 -5.784929619554375 xy xz yz

Atom Type Labels

1 Li
2 P
3 S
4 Sb

Masses

1 6.941
2 30.973761
3 32.065
4 121.76

Atoms # atomic

49 3 0.43482209198435107 1.0254833553258063 3.462604966999244 0 0 0
98 3 0.7981759684886468 -0.9184518722503312 2.909986350133068 0 0 0
23 2 1.3286108734351596 1.9870830820507526 1.8325951808241892 0 0 0
78 3 4.283264068880544 0.42541107342422035 1.0099031604276085 0 0 0
115 4 3.8763696776046905 2.2423975427620197 2.659399132392999 0 0 0
85 3 3.902302284830502 1.0543790290320567 4.8972952519901956 0 0 0
70 3 8.113895425419457 0.65647248217156 1.3257893888535672 0 0 0
123 4 7.4224453739510805 1.6652041452293649 3.7048479877227853 0 0 0
65 3 5.615632652235121 -0.06732076489106342 4.542215382390547 0 0 0
13 1 11.863248329547082 -0.046764407264711316 3.274548041172708 0 0 0
75 3 11.403108857181737 1.0725120765992988 0.8499883244570353 0 0 1
26 2 9.556220649733097 1.9823155728954494 0.6212502109121234 0 0 0
69 3 12.938966151319839 2.4027770565459203 4.075213566814962 0 0 0
32 3 15.32091860102191 1.1641441979302691 0.6953179621324136 0 0 1
55 3 14.275853483674629 -0.9895472613252654 3.8837374571634 0 1 0
76 3 -1.4944204605006255 3.998513570880046 2.8211976961200236 0 0 0
29 2 0.6025649995228542 4.035217399147382 2.6861901931382217 0 0 0
71 3 0.7425581688292187 5.68018772828452 1.4268553161103519 0 0 0
62 3 1.6030243769501535 4.500638230006967 4.412637620731288 0 0 0
118 4 3.8181594540944532 6.254400142203873 3.504037676989946 0 0 0
64 3 4.122219384595418 6.177542846011741 0.8461126228130789 0 0 0
77 3 5.822575378468661 4.385552523193443 3.4273238230092913 0 0 0
114 4 7.706779700708572 5.976634814143636 3.311999309952735 0 0 0
88 3 9.626317581545619 3.10938473962643 2.370434801420241 0 0 0
122 4 12.101823917438642 4.251805085470401 2.6963569848324296 0 0 0
105 4 15.907789532565513 3.606824915892916 0.20220917295543345 0 0 1
99 3 0.24915302816607965 10.418189610727115 1.9568705473564778 0 0 0
21 2 2.22984050464253 10.059978358761544 3.1682691146836137 0 0 0
95 3 3.293278278570816 9.860776696127353 1.2584666400539397 0 0 0
34 3 1.8076698896885453 8.176908291808225 3.819327806295328 0 0 0
6 1 7.17162732274523 10.31820632223203 3.0864315300550813 0 0 0
58 3 5.245768168065534 7.997004403769497 4.744104914010639 0 0 0
57 3 6.152567930599657 8.083832709736237 2.9206095568523507 0 0 0
72 3 9.910069050763965 7.1381678022804085 1.7574927955451478 0 0 0
61 3 9.471146471088145 10.401932314892857 3.965629673231489 0 0 0
5 1 -1.5312259742319805 13.214280483151342 1.3178625201574559 0 0 0
33 3 -0.32856075224143344 12.002303296675482 3.037608410758339 0 0 0
22 2 1.8795453146883971 11.26016673523289 0.5075704381323067 0 0 0
47 3 7.607295258485645 12.501584324847489 2.0478597553793616 0 0 0
8 1 5.112253462854608 7.6332759776960595 13.629903920190912 0 0 0
15 1 12.000355102637752 13.586351183785652 1.9830947412678805 0 -1 0
25 2 9.514647106291637 12.001754911292874 2.6580847962315097 0 0 0
102 3 10.661868152498858 11.888425376562477 1.031733709243104 0 0 0
96 3 -0.7772843044883314 -2.4295864310769812 6.547427038190363 1 1 0
67 3 4.906404687034412 -1.5317317105377388 7.688127495404394 0 1 0
28 2 8.657989300554197 -1.5728171666350939 4.853166726550348 0 0 0
81 3 8.248023186192036 -1.503196096652874 6.999629432457644 0 0 0
18 2 5.610568389819498 -3.010510121918331 9.024538091580794 0 1 0
68 3 10.959609589316486 -3.104643001352968 8.346889353108654 0 0 0
40 3 -0.7690136761959294 1.6191680576645129 7.001550483984252 0 0 0
59 3 -2.1267024220713555 2.6778759887198738 8.11018208154045 0 0 0
119 4 1.4363018607555378 1.6847551973636636 8.57922324580677 0 0 0
41 3 4.205124714160225 1.6670073370799807 8.973773730565338 0 0 0
10 1 5.931343962158431 0.7042538105113287 6.9708744393163515 0 0 0
86 3 7.53863416084174 2.4691563490362975 6.37744276845524 0 0 0
89 3 9.601992025018736 0.2084610871223369 4.427181580324657 0 0 0
106 4 11.05336461575384 -0.6201166033040848 7.729885763251476 0 0 0
94 3 13.613531298202787 -0.5254307132158513 7.694654644790242 0 0 0
60 3 -3.4217585588458173 5.804678797250872 8.385509075338483 0 0 0
7 1 -0.058276030947616686 3.7963853536804066 5.993318350164871 0 0 0
101 3 -0.9559198140365077 6.391384139031829 6.281844991951335 0 0 0
80 3 1.385312216609214 4.125897660970334 8.115760682882438 0 0 0
87 3 7.982675014295643 5.968791011425708 5.925876184551007 0 0 0
117 4 6.275500856624622 4.53867426858939 6.9729035561679185 0 0 0
46 3 11.579287465896138 2.6131741118690277 7.3847938406522 0 0 0
84 3 11.65563789189941 5.379726085289255 4.89545273584101 0 0 0
14 1 9.733427777817532 4.303270980917177 6.071519872396202 0 0 0
48 3 10.625796476312136 4.169729819323944 8.455951236957198 0 0 0
112 4 13.380137603691068 4.047375046598523 6.051009716250483 0 0 0
2 1 -4.740169615113658 9.84298439768203 7.457213634506396 0 0 0
92 3 -3.839120771361001 8.029484606625537 6.131378812541028 0 0 0
19 2 -2.657323666245953 9.753821171728852 5.458471618917478 0 0 0
24 2 -2.323028485344166 7.272540930169462 7.458832594303028 0 0 0
74 3 -2.078734855921994 10.898887533601286 7.257843352134695 0 0 0
36 3 3.5043231162808786 7.070577258348599 7.913112606020759 0 0 0
103 3 1.4210323826556532 10.019986665273237 7.638878290161792 0 0 0
1 1 0.9339034011578908 7.018985511477715 7.711932195959344 0 0 0
93 3 -4.367295342792915 10.912101814775642 4.97961238498372 0 0 0
124 4 0.03140759917662006 11.374260071009815 5.922396593966513 0 0 0
17 2 5.21420644368685 11.11570125000673 7.115238421940975 0 0 0
63 3 6.218224053778297 11.641713791889018 5.275761266135183 0 0 0
116 4 14.07478493078577 -2.312624048945046 6.107328765650302 0 1 0
107 4 -0.8383513656861998 -4.64905687121638 12.280343437088998 0 0 0
31 3 -3.2384660519386403 -3.229755756710058 11.954286267789143 0 0 0
100 3 0.2707202793394159 -2.409994879631421 11.156687238885468 0 0 0
51 3 4.313385308252773 -3.394139949097686 10.523758104016586 0 0 0
9 1 1.9873858229252273 -3.9342035046122508 9.938565720379707 0 1 0
111 4 8.63136341755176 -3.48682280553907 12.423777158158991 0 0 0
54 3 7.397591378798491 -2.59508326494441 9.907499306058245 0 1 0
35 3 9.531079700058719 -1.482686375040017 13.598115947663374 0 0 -1
50 3 14.342561220452335 -3.169147426894366 9.91760763716566 -1 0 0
113 4 13.058455268075905 1.681096896360824 10.13296052264106 -1 0 0
104 4 -1.3483631635019426 -1.31172158491749 9.660052128636671 0 0 0
110 4 -1.412213689331279 -1.1531835447306316 13.39887443961463 0 0 -1
42 3 -2.3693176707006014 0.23334315629733204 11.363465593227815 0 0 0
79 3 3.4485805841908856 0.05478716323346422 10.027368467863283 0 0 0
90 3 3.9356382462516435 -0.7061351591362461 13.545439959378534 0 0 0
109 4 2.187457709321547 0.6533165973693658 12.293422350353875 0 0 0
4 1 5.494008312491158 -1.3724212897475212 11.479388452534678 0 0 0
20 2 5.125000683483684 1.0395547613121225 13.540123514769821 0 0 0
38 3 6.3747453503469185 0.8299208727104332 11.980636577804528 0 0 0
3 1 5.471812581982599 2.722940903731099 10.868622881672753 0 0 0
39 3 11.226898565065646 0.02933733506238667 10.118777710002789 0 0 0
82 3 -4.826437376205388 2.5857262215380645 12.45083324856676 0 0 0
52 3 -6.531504088279908 5.35480008825268 13.229316451150265 0 0 -1
11 1 -4.023072750649018 6.34060304612315 11.00065662033327 0 0 0
120 4 -0.7855818044569594 4.313880115012437 9.659018978571666 0 0 0
37 3 -2.3991789529297636 4.830038860709129 12.113191767643325 0 0 0
45 3 0.3485596739314918 2.360490805867797 10.778880167195751 0 0 0
12 1 2.6134588626068287 5.431187150727986 9.687663413551132 0 0 0
97 3 3.860935396792881 2.5846823595391983 12.899415976610833 0 0 0
73 3 4.81982995590779 6.469044143456573 10.822849541547814 0 0 0
108 4 8.792106193459178 2.4807445674815054 9.38765988994939 0 0 0
44 3 7.005033190630071 4.166301878213594 9.45344962359032 0 0 0
30 3 9.43212127416956 2.669530751787062 11.803685483573773 0 0 0
16 2 11.129606737721351 3.8530510881885514 11.681511852804501 0 0 0
91 3 -6.104182939223234 7.206079299617176 12.380573747504727 0 0 -1
53 3 -4.547322727541634 8.763216336130615 9.792125341131534 0 0 0
56 3 -2.9505346487126323 8.626640176802496 11.072158867534085 0 0 0
66 3 0.5577676213167857 6.911313830786164 10.04326381957845 0 0 0
43 3 3.177173614673009 6.562261333099072 12.12320605128999 0 0 0
27 2 4.129795715054067 8.095185652771638 9.544701450538842 0 0 0
121 4 1.973567330376945 8.607078016505248 10.95710781111909 0 0 0
83 3 6.491972194392911 9.425090778946842 12.418227517453449 0 -1 0

Velocities

49 1.261993667292274 0.5196909153522289 -1.728327081808922
98 -1.412622821474427 0.45534243398517943 0.011853682685571739
23 0.8094259369750448 -0.1073750610777099 -0.7798427771535406
78 -0.07827957499518849 -1.6650994791461216 0.7105950876465541
115 0.4884242284819679 -0.6690424144240372 0.42802388316531903
85 0.41822768076066025 -1.4364177384929941 1.9966726213375228
70 -1.1115168145267642 -0.46695582598453794 0.08266630785352538
123 0.15787233388194485 0.08581082182281033 -0.24366874036752795
65 -1.2896857462315667 0.3488140811850704 0.5705569605312445
13 -1.846683970053133 -0.6073719563840433 -3.7164440041691496
75 -0.4393420693032301 0.45664139073432986 0.6078540422552008
26 0.49978376022632093 -0.13764781414476626 1.4142044048965707
69 0.12740607053803832 -0.6047145284131342 -0.42743416051712707
32 -0.1216787354534268 -0.17721744450099272 -0.40049148935170553
55 0.6985949069937488 0.8346308748143557 -1.235458938730513
76 0.42863036875233446 2.6013557745119407 -0.16057914279657526
29 -0.46283130381171783 -0.8233613453372719 2.4803959955313672
71 1.5006058297484859 -1.8527086130870178 -1.3602187983085274
62 0.15068936021503962 -0.33200328946976665 -0.30550959807545325
118 -0.9010775569881122 0.00553683857298356 0.8573352737450384
64 -0.3663180484334781 1.5627339961188311 -0.1592747459420809
77 -0.9941331584801029 -0.15700712747897466 0.05630084268391285
114 -0.9163768304296515 0.35437535119245356 0.04234656133475277
88 -2.0248784271534026 -1.4705162118070692 0.4004027542462031
122 -1.0208183626866196 -0.8424424941659898 0.0543057360164233
105 0.4441225474259634 0.29289700417706077 0.3167063934571689
99 1.3778500654047603 0.694693247050113 -0.1093515505377969
21 1.566178926201067 -0.2757935811942319 -1.3739564461564941
95 1.7557395101983904 0.4221049074372753 -0.3615246217890777
34 -3.0763716540542445 2.0971867439239946 -1.613772415169408
6 -2.866547130543716 5.988520495180432 -1.9470195631182121
58 -0.10271790487098795 0.879577053426361 -0.020998127237061053
57 0.4736335350935988 0.8315211378853162 -0.010752717565562874
72 0.606197599211833 1.1186778847488197 -0.4510803143121962
61 -0.06595018317750459 -0.259922559309092 1.3342545577610272
5 -0.09580806610995056 2.906966837069186 -0.4706746283493052
33 0.7753617555071878 -0.4682028309154257 -1.5617277920448756
22 0.765033097048131 -1.5160286970257817 0.7514786075927896
47 -0.5070432212438697 0.2885673099152009 -0.8507113433070129
8 4.755668706956518 1.3251984767510263 -1.4990561063924077
15 -0.7297953257725892 0.5672459838360019 -0.020082817896821467
25 1.4779778436221351 1.8978578172865643 0.9658053593971143
102 -0.3200356453524976 1.5890674781151197 -0.21527013593191296
96 1.0776885594476053 0.9349266709545122 0.05422842845551497
67 0.4216626514453614 -1.5604058596773611 0.02608142160859527
28 -1.4347382188487567 -1.2228150230441965 -0.6074340751430403
81 -1.3350241830192462 1.5288694855236662 -0.8264706830937871
18 -1.6366258914015435 2.2488671896671053 -2.788755148217017
68 -1.246930928068079 -1.9579764592711288 0.14591096051593755
40 0.019937696164996955 0.36521869512961364 -0.9564685521613753
59 -0.6371223513097376 -2.386867891188377 -1.5619264539377078
119 -0.16358147925266414 -0.3607822381377532 0.16871174750636078
41 -0.34962417322482864 -1.4864077557283748 2.577703662621938
10 -2.3782041552924764 -0.956523267481029 0.7097642610544901
86 0.9043552586063688 1.9769792283765566 -0.5675892554927253
89 -0.19218041410643186 -1.3943205532694518 0.12462391901173771
106 0.31282512213488695 0.23401962021494122 -0.7690652630169449
94 0.20614970297028987 0.7645322480989412 -0.002035858979713916
60 0.09889114532647342 2.2796255193011805 -0.24991088901427672
7 1.0078951971657062 3.0110492949227825 -2.2604525039585064
101 1.296435310086112 0.3963422688951204 1.5503632775307943
80 -0.1459684743912901 -1.9088622140800988 0.09920900581609786
87 -0.1070010692015946 -0.7598651785335727 -0.13783996181946573
117 0.5155363170774104 -0.19841437026356523 -0.45271624983725306
46 0.06414758952959435 1.074403644499302 1.145882704207241
84 0.9917105181185705 1.269621646722672 -0.5412775308712693
14 -3.202808336510598 1.75552025883893 2.089351093644826
48 1.3418455681973493 -1.5366598279098782 -0.563511294930162
112 -0.3584890811065286 0.37121787404457646 0.44872276437794173
2 0.5617564576416282 -0.8053149507067069 -0.01149990928223232
92 -0.024168717102033575 0.3756452554690005 0.8315328165538252
19 0.9159921885805945 -0.7545303612280392 0.5391719846863322
24 -1.9645892710713015 0.7050073589380392 -1.3782216042488227
74 1.1565718676766845 0.2908776563008029 0.14381783766399564
36 -0.027672392536268374 -3.3299554289804942 1.3738225952871206
103 2.846867653900249 0.9036853110993623 -0.7766260096483987
1 1.9060017893208898 3.7578013773122874 2.590354944646009
93 -1.0948395695154567 0.9748954142668089 0.6002666460636854
124 -0.0035888921218104742 -0.3748327570000427 0.2837034534591498
17 -1.4178082892932364 -1.868570434863925 0.2850474477252888
63 -0.9481793780990876 -0.38802791231280037 -2.1387186654224117
116 0.00905277357363684 -0.8622324971805414 -0.6622699621754432
107 0.7369747673320562 -0.15417439362396018 0.3939458726167592
31 0.17203041250175333 0.4558762089622506 0.6575426788951103
100 -0.36362096651429865 0.9305820688854542 0.744893470828257
51 -0.2269129911283535 -0.1334711458332066 0.22123174343759508
9 -3.718031944554955 -1.1239349443190594 2.7274966336204605
111 -1.4541662256705745 -0.5930029621677952 -0.6238354788119049
54 -1.3020836814657915 0.4098310967418191 1.4121496901434596
35 -1.553374542415555 0.6286298487613458 0.09977083054871622
50 2.5002868795521493 -1.13408188886135 0.3380895765918867
113 -0.47913536831431985 0.35882199555930944 0.1762033720859261
104 -0.2846078218561346 0.09281853861459091 -0.18053893608463786
110 0.7328738242685956 0.47829053740053734 0.01306732360839514
42 -0.8113707013384923 1.0163050752838447 0.13634347040725509
79 0.28669101448043066 0.545143361047919 -1.002156687047664
90 0.8989318200701794 -0.06336008603977696 0.6429849028231761
109 0.13003708423749974 1.0581381768124294 0.17366045043499923
4 -0.32948459957384846 -1.0211689167403335 2.1364162589302174
20 0.7078748964520302 -0.6468365584237539 1.1692344870944262
38 -0.8481250362397075 0.24308991114469952 0.001732642972902145
3 -2.753317192631544 3.3691336332027992 3.6602189840319133
39 0.3028195387179916 -0.12640323463051145 -1.0612107676656621
82 -0.09505772066972451 -1.6141867679607051 -0.2272366135924312
52 0.6342476018486377 1.2880653767764378 -1.3067046369439854
11 1.872681424148177 -4.476411845933688 -1.0321801029126725
120 0.11960769856702565 0.13819622256201272 0.20120736192069483
37 0.5700239102124629 -0.16216379348749554 -0.9120324627472679
45 -0.039062327691963994 -1.1981573219518384 0.002240736260972781
12 -3.396601885780356 -0.2779757288456613 -2.8873175381027254
97 0.763527996485167 0.7801469697474704 0.46334880722528426
73 1.230780428028518 0.42846485166819137 -1.534108481559632
108 0.2973524325073654 -0.7950964131212881 0.3948848384575478
44 0.08571948859183899 -1.8199639065182698 0.037356805083868315
30 0.8115844497249252 -0.7924241820892894 -0.9753622304288717
16 -0.10294233270343839 -0.387192096334538 -1.0719732165908198
91 -0.10258401284764698 0.12065480439378767 0.7817961693114749
53 0.5836421729714605 1.0535841886956514 0.16384982799617867
56 -0.95847578178588 1.4219718446146563 0.4605818790884315
66 0.3960749297597527 0.20936705920985318 0.6831182500857371
43 -1.0181327062473002 2.005074466799641 -0.4874922051562847
27 1.3007936895137435 0.11394042002250906 -1.4420925627040102
121 0.7516523040851811 -0.2376524818283443 0.842992286004134
83 0.9016783594092267 -0.8097373411261342 0.19195122155658742
