LAMMPS data file. msi2lmp v3.9.10 / 10 Mar 2023 / CGCMM for PIM-1_corrected

     55 atoms
     60 bonds
    108 angles
    173 dihedrals

  12 atom types
  18 bond types
  34 angle types
  59 dihedral types

    -7.929508880     6.097040747 xlo xhi
    -6.771877072     3.729202521 ylo yhi
    -2.041766719     6.168561464 zlo zhi

Masses

   1  12.011150 # cp1
   2  12.0111500 # cp2
   3  12.011150 # cp
   4  12.011150 # c
   5  12.011150 # c2
   6  15.999400 # o
   7  12.011150 # cpl
   8  15.999400 # ol
   9  12.011150 # ct
  10  14.006700 # nt
  11   1.007970 # h
  12  12.011150 # c3

Pair Coeffs # lj/cut/coul/long

   1   0.1479999981   3.6170487995 # cp1
   2   0.1479999981   3.6170487995 # cp2
   3   0.1479999981   3.6170487995 # cp
   4   0.1599999990   3.4745050026 # c
   5   0.0389999952   3.8754094636 # c2
   6   0.2280000124   2.8597848722 # o
   7   0.1479999981   3.6170487995 # cpl
   8   0.2280000124   2.8597848722 # ol
   9   0.1479999981   3.6170487995 # ct
  10   0.1669999743   3.5012320066 # nt
  11   0.0380000011   2.4499714540 # h
  12   0.0389999952   3.8754094636 # c3

Bond Coeffs # harmonic

   1   480.0000     1.3400 # cp1-cp2
   2   480.0000     1.3400 # cp1-cp1
   3   384.0000     1.3700 # cp1-ol
   4   480.0000     1.3400 # cp2-cp
   5   363.4164     1.0800 # cp2-h
   6   480.0000     1.3400 # cp-cp
   7   283.0924     1.5100 # cp-c
   8   322.7158     1.5260 # c-c2
   9   322.7158     1.5260 # c-c3
  10   340.6175     1.1050 # c2-h
  11   363.4164     1.0800 # cp-h
  12   384.0000     1.3700 # cp-o (pcff)
  13   480.0000     1.3400 # cp-cpl
  14   321.6716     1.4000 # cp-ct (pcff)
  15   480.0000     1.3400 # cpl-cpl
  16   880.0000     1.1580 # ct-nt (pcff)
  17   340.6175     1.1050 # h-c3
  18   384.0000     1.3700 # cp1-o (add)

Angle Coeffs # harmonic

   1    90.0000   120.0000 # cp1-cp1-cp2
   2    60.0000   120.0000 # cp2-cp1-ol
   3    60.0000   120.0000 # cp1-cp1-ol
   4    90.0000   120.0000 # cp1-cp2-cp
   5    37.0000   120.0000 # cp-cp2-h
   6    37.0000   120.0000 # cp1-cp2-h
   7    90.0000   120.0000 # cp2-cp-cp
   8    44.2000   120.0000 # cp2-cp-c
   9    44.2000   120.0000 # cp-cp-c
  10    46.6000   110.5000 # cp-c-c2
  11    46.6000   110.5000 # c2-c-c3
  12    46.6000   110.5000 # cp-c-c3
  13    46.6000   110.5000 # c3-c-c3
  14    46.6000   110.5000 # c-c2-c
  15    44.4000   110.0000 # c-c2-h
  16    39.5000   106.4000 # h-c2-h
  17    46.6000   110.5000 # c2-c-c2
  18    46.6000   110.5000 # cp-c-cp
  19    90.0000   120.0000 # cp-cp-cp
  20    37.0000   120.0000 # cp-cp-h
  21    60.0000   120.0000 # cp-cp-o
  22    60.0000   109.5000 # cp-o-cp
  23    90.0000   120.0000 # cp-cp-cpl
  24    34.6799   120.0000 # cpl-cp-ct
  25    34.6799   120.0000 # cp-cp-ct
  26    90.0000   120.0000 # cp-cpl-cpl
  27   200.0000   180.0000 # cp-ct-nt
  28    44.4000   110.0000 # c-c3-h
  29    39.5000   106.4000 # h-c3-h 
  30    90.0000   120.0000 # cp-lcp-cp (add)
  31    60.0000   120.0000 # lcp-cp-o
  32    60.0000   109.5000 # cp-o-cp1
  33    60.0000   120.0000 # cp1-cp1-o
  34    60.0000   120.0000 # cp2-cp1-o

Dihedral Coeffs # harmonic

  1     3.0000  -1   2 # cp1-cp1-cp2-cp
  2     3.0000  -1   2 # cp1-cp1-cp2-h
  3     3.0000  -1   2 # ol-cp1-cp2-cp
  4     3.0000  -1   2 # ol-cp1-cp2-h
  5     3.0000  -1   2 # cp2-cp1-cp1-cp2
  6     3.0000  -1   2 # cp2-cp1-cp1-ol
  7     3.0000  -1   2 # ol-cp1-cp1-ol
  8     3.0000  -1   2 # cp1-cp2-cp-cp
  9     3.0000  -1   2 # cp1-cp2-cp-c
 10     3.0000  -1   2 # h-cp2-cp-cp
 11     3.0000  -1   2 # h-cp2-cp-c
 12     3.0000  -1   2 # cp2-cp-cp-cp2
 13     3.0000  -1   2 # cp2-cp-cp-c
 14     3.0000  -1   2 # c-cp-cp-c
 15     0.0000   1   2 # cp2-cp-c-c2
 16     0.6750   1   4 # cp2-cp-c-cp
 17     0.0000   1   2 # cp-cp-c-c2
 18     0.6750   1   4 # cp-cp-c-cp
 19     0.0000   1   2 # cp-cp-c-c3
 20     0.0000   1   2 # cp2-cp-c-c3
 21     0.1581   1   3 # cp-c-c2-c
 22     0.1581   1   3 # cp-c-c2-h
 23     0.1581   1   3 # c3-c-c2-c
 24     0.1581   1   3 # c3-c-c2-h
 25     0.1581   1   3 # c2-c-c3-h
 26     0.1581   1   3 # cp-c-c3-h
 27     0.1581   1   3 # c3-c-c3-h
 28     0.1581   1   3 # c2-c-c2-c
 29     0.1581   1   3 # c2-c-c2-h
 30     3.0000  -1   2 # cp-cp-cp-c
 31     3.0000  -1   2 # cp-cp-cp-cp
 32     3.0000  -1   2 # cp-cp-cp-h
 33     3.0000  -1   2 # c-cp-cp-h
 34     3.0000  -1   2 # cp-cp-cp-o
 35     3.0000  -1   2 # o-cp-cp-h
 36     3.0000  -1   2 # o-cp-cp-o
 37     0.7500  -1   2 # cp-cp-o-cp
 38     3.0000  -1   2 # o-cp-cp-cpl
 39     3.0000  -1   2 # o-cp-cp-ct
 40     3.0000  -1   2 # cp-cp-cp-cpl
 41     3.0000  -1   2 # cp-cp-cp-ct
 42     3.0000  -1   2 # cp-cp-cpl-cpl
 43     0.0000   1   2 # ct-cp-cpl-cpl
 44     0.0000   1   0 # cpl-cp-ct-nt
 45     0.0000   1   0 # cp-cp-ct-nt
 46     3.0000  -1   2 # cp-cpl-cpl-cp
 47     3.0000  -1   2 # cp-lcp-cp-cp
 48     0.0000   1   2 # ct-cp-lcp-cp
 49     0.0000   1   2 # ct-cp-cp-lcp
 50     3.0000  -1   2 # o-cp1-cp1-lo
 51     3.0000  -1   2 # cp-lcp-cp-o
 52     0.7500  -1   2 # lcp-cp-o-cp1
 53     0.7500  -1   2 # cp-cp-o-cp1
 54     3.0000  -1   2 # o-cp1-cp1-o
 55     3.0000  -1   2 # cp2-cp1-cp1-o
 56     0.7500  -1   2 # cp2-cp1-o-cp
 57     3.0000  -1   2 # cp-cp2-cp1-o
 58     3.0000  -1   2 # o-cp1-cp2-h
 59     0.7500  -1   2 # cp1-cp1-o-cp


Atoms # full

      1      1   1  0.030000     3.113303991     0.476615510    -0.323218728   0   0   0 # cp1
      2      1   2 -0.100000     2.264445609    -0.555368605     0.062831905   0   0   0 # cp2
      3      1   3  0.000000     2.427296645    -1.175229050     1.330137800   0   0   0 # cp
      4      1   3  0.000000     3.425172521    -0.758105368     2.175123576   0   0   0 # cp
      5      1   2 -0.100000     4.295176598     0.289000633     1.777626324   0   0   0 # cp2
      6      1   1  0.030000     4.132628775     0.899039236     0.537566495   0   0   0 # cp1
      7      1   4  0.000000     3.452157469    -1.570090416     3.488452664   0   0   0 # c
      8      1   5 -0.200000     2.067020084    -2.307875176     3.426555965   0   0   0 # c2
      9      1   4  0.000000     1.607290056    -2.332319358     1.927105447   0   0   0 # c
     10      1   3  0.000000     0.079610686    -2.229571498     1.781643575   0   0   0 # cp
     11      1   3  0.000000    -0.484225783    -3.418981104     1.389179076   0   0   0 # cp
     12      1   4  0.000000     0.571194401    -4.531379138     1.211197360   0   0   0 # c
     13      1   5 -0.200000     1.904056213    -3.700809966     1.220897815   0   0   0 # c2
     14      1   3 -0.100000    -1.890021346    -3.517708254     1.223785702   0   0   0 # cp
     15      1   3  0.028200    -2.695617402    -2.411540779     1.449736834   0   0   0 # cp
     16      1   3  0.028200    -2.113490425    -1.185899824     1.851529368   0   0   0 # cp
     17      1   3 -0.100000    -0.740694554    -1.095972662     2.018697688   0   0   0 # cp
     18      1   6 -0.056400    -2.935393183    -0.071808793     2.081107322   0   0   0 # o
     19      1   3  0.028200    -4.338652778    -0.145197031     1.920815633   0   0   0 # cp
     20      1   3  0.028200    -4.925381649    -1.380122205     1.516836532   0   0   0 # cp
     21      1   6 -0.056400    -4.087099046    -2.496089097     1.287935341   0   0   0 # o
     22      1   3  0.085200    -6.313904179    -1.472418320     1.352747806   0   0   0 # cp
     23      1   7 -0.100000    -7.110403617    -0.348659328     1.587991974   0   0   0 # cpl
     24      1   7 -0.100000    -6.535525063     0.861323607     1.983726476   0   0   0 # cpl
     25      1   3  0.085200    -5.152739228     0.971587631     2.152121346   0   0   0 # cp
     26      1   8 -0.380000     4.968661559     1.905628475     0.161093428   0   0   0 # ol
     27      1   8 -0.380000     2.947717842     1.069913050    -1.541766719   0   0   0 # ol
     28      1   9  0.160200    -4.600195544     2.213071416     2.553259857   0   0   0 # ct
     29      1   9  0.160200    -6.927132394    -2.685051032     0.951478647   0   0   0 # ct
     30      1  10 -0.245400    -4.148740275     3.229202521     2.881459212   0   0   0 # nt
     31      1  10 -0.245400    -7.429508880    -3.676993281     0.623169624   0   0   0 # nt
     32      1  11  0.100000     1.474186741    -0.895996325    -0.594223676   0   0   0 # h
     33      1  11  0.100000     5.090802823     0.616156926     2.434734799   0   0   0 # h
     34      1  12 -0.300000     4.618135847    -2.569477861     3.502663893   0   0   0 # c3
     35      1  12 -0.300000     3.530964663    -0.694306271     4.745288194   0   0   0 # c3
     36      1  11  0.100000     1.323411478    -1.741912945     4.023456315   0   0   0 # h
     37      1  11  0.100000     2.097524226    -3.310082794     3.887606466   0   0   0 # h
     38      1  12 -0.300000     0.434522011    -5.298656039    -0.109880546   0   0   0 # c3
     39      1  12 -0.300000     0.529061109    -5.531961879     2.375691374   0   0   0 # c3
     40      1  11  0.100000     2.225064628    -3.507232380     0.177471970   0   0   0 # h
     41      1  11  0.100000     2.745198845    -4.250188617     1.677962912   0   0   0 # h
     42      1  11  0.100000    -2.332483419    -4.459943001     0.925614463   0   0   0 # h
     43      1  11  0.100000    -0.287854239    -0.162770475     2.331601476   0   0   0 # h
     44      1  11  0.100000     4.622120962    -3.228102255     2.616147601   0   0   0 # h
     45      1  11  0.100000     4.587956855    -3.227047003     4.390253545   0   0   0 # h
     46      1  11  0.100000     5.597040747    -2.055784703     3.514353341   0   0   0 # h
     47      1  11  0.100000     4.487857750    -0.145037090     4.810150830   0   0   0 # h
     48      1  11  0.100000     3.441552777    -1.295431348     5.668561464   0   0   0 # h
     49      1  11  0.100000     2.729794752     0.066745233     4.777854470   0   0   0 # h
     50      1  11  0.100000     1.266399555    -6.012333777    -0.254415813   0   0   0 # h
     51      1  11  0.100000     0.431641670    -4.627360422    -0.988042867   0   0   0 # h
     52      1  11  0.100000    -0.501886302    -5.883648208    -0.157543880   0   0   0 # h
     53      1  11  0.100000     0.618223864    -5.039622008     3.360418526   0   0   0 # h
     54      1  11  0.100000     1.347687932    -6.271877072     2.313859066   0   0   0 # h
     55      1  11  0.100000    -0.418738847    -6.100537083     2.394697817   0   0   0 # h

Bonds

     1   1      1      2
     2   2      1      6
     3   3      1     27
     4   4      2      3
     5   5      2     32
     6   6      3      4
     7   7      3      9
     8   4      5      4
     9   7      4      7
    10   1      6      5
    11   5      5     33
    12   3      6     26
    13   8      7      8
    14   9      7     34
    15   9      7     35
    16   8      9      8
    17  10      8     36
    18  10      8     37
    19   7     10      9
    20   8      9     13
    21   6     10     11
    22   6     10     17
    23   7     11     12
    24   6     11     14
    25   8     12     13
    26   9     12     38
    27   9     12     39
    28  10     13     40
    29  10     13     41
    30   6     14     15
    31  11     14     42
    32   6     15     16
    33  12     15     21
    34   6     16     17
    35  12     16     18
    36  11     17     43
    37  12     19     18
    38   6     19     20
    39   6     19     25
    40  12     20     21
    41   6     20     22
    42  13     22     23
    43  14     22     29
    44  15     23     24
    45  13     25     24
    46  14     25     28
    47  16     28     30
    48  16     29     31
    49  17     44     34
    50  17     45     34
    51  17     46     34
    52  17     47     35
    53  17     48     35
    54  17     49     35
    55  17     50     38
    56  17     51     38
    57  17     52     38
    58  17     53     39
    59  17     54     39
    60  17     55     39

Angles

     1   1      6      1      2
     2   2      2      1     27
     3   3      6      1     27
     4   4      1      2      3
     5   5      3      2     32
     6   6      1      2     32
     7   7      2      3      4
     8   8      2      3      9
     9   9      4      3      9
    10   7      5      4      3
    11   9      3      4      7
    12   8      5      4      7
    13   4      6      5      4
    14   5      4      5     33
    15   6      6      5     33
    16   1      1      6      5
    17   2      5      6     26
    18   3      1      6     26
    19  10      4      7      8
    20  11      8      7     34
    21  11      8      7     35
    22  12      4      7     34
    23  12      4      7     35
    24  13     34      7     35
    25  14      7      8      9
    26  15      7      8     36
    27  15      7      8     37
    28  15      9      8     36
    29  15      9      8     37
    30  16     36      8     37
    31  10      3      9      8
    32  10     10      9      8
    33  17      8      9     13
    34  18      3      9     10
    35  10      3      9     13
    36  10     10      9     13
    37   9     11     10      9
    38  19     11     10     17
    39   9     17     10      9
    40   9     10     11     12
    41  19     10     11     14
    42   9     14     11     12
    43  10     11     12     13
    44  12     11     12     38
    45  12     11     12     39
    46  11     13     12     38
    47  11     13     12     39
    48  13     38     12     39
    49  14     12     13      9
    50  15     12     13     40
    51  15     12     13     41
    52  15      9     13     40
    53  15      9     13     41
    54  16     40     13     41
    55  19     15     14     11
    56  20     15     14     42
    57  20     11     14     42
    58  19     14     15     16
    59  21     14     15     21
    60  21     16     15     21
    61  19     15     16     17
    62  21     15     16     18
    63  21     17     16     18
    64  19     16     17     10
    65  20     16     17     43
    66  20     10     17     43
    67  22     19     18     16
    68  21     20     19     18
    69  21     25     19     18
    70  19     20     19     25
    71  21     19     20     21
    72  19     19     20     22
    73  21     22     20     21
    74  22     20     21     15
    75  23     20     22     23
    76  24     23     22     29
    77  25     20     22     29
    78  26     22     23     24
    79  26     25     24     23
    80  23     19     25     24
    81  24     24     25     28
    82  25     19     25     28
    83  27     25     28     30
    84  27     22     29     31
    85  28      7     34     44
    86  28      7     34     45
    87  28      7     34     46
    88  29     44     34     45
    89  29     44     34     46
    90  29     45     34     46
    91  28      7     35     47
    92  28      7     35     48
    93  28      7     35     49
    94  29     47     35     48
    95  29     47     35     49
    96  29     48     35     49
    97  28     12     38     50
    98  28     12     38     51
    99  28     12     38     52
   100  29     50     38     51
   101  29     50     38     52
   102  29     51     38     52
   103  28     12     39     53
   104  28     12     39     54
   105  28     12     39     55
   106  29     53     39     54
   107  29     53     39     55
   108  29     54     39     55

Dihedrals

     1   1      6      1      2      3
     2   2      6      1      2     32
     3   3     27      1      2      3
     4   4     27      1      2     32
     5   5      2      1      6      5
     6   6      2      1      6     26
     7   6      5      6      1     27
     8   7     27      1      6     26
     9   8      1      2      3      4
    10   9      1      2      3      9
    11  10     32      2      3      4
    12  11     32      2      3      9
    13  12      2      3      4      5
    14  13      2      3      4      7
    15  13      5      4      3      9
    16  14      9      3      4      7
    17  15      2      3      9      8
    18  16      2      3      9     10
    19  15      2      3      9     13
    20  17      4      3      9      8
    21  18      4      3      9     10
    22  17      4      3      9     13
    23   8      6      5      4      3
    24  10     33      5      4      3
    25   9      6      5      4      7
    26  11     33      5      4      7
    27  17      3      4      7      8
    28  19      3      4      7     34
    29  19      3      4      7     35
    30  15      5      4      7      8
    31  20      5      4      7     34
    32  20      5      4      7     35
    33   1      1      6      5      4
    34   3     26      6      5      4
    35   2      1      6      5     33
    36   4     26      6      5     33
    37  21      4      7      8      9
    38  22      4      7      8     36
    39  22      4      7      8     37
    40  23     34      7      8      9
    41  24     34      7      8     36
    42  24     34      7      8     37
    43  23     35      7      8      9
    44  24     35      7      8     36
    45  24     35      7      8     37
    46  25      8      7     34     44
    47  25      8      7     34     45
    48  25      8      7     34     46
    49  26      4      7     34     44
    50  26      4      7     34     45
    51  26      4      7     34     46
    52  27     35      7     34     44
    53  27     35      7     34     45
    54  27     35      7     34     46
    55  25      8      7     35     47
    56  25      8      7     35     48
    57  25      8      7     35     49
    58  26      4      7     35     47
    59  26      4      7     35     48
    60  26      4      7     35     49
    61  27     34      7     35     47
    62  27     34      7     35     48
    63  27     34      7     35     49
    64  21      3      9      8      7
    65  21     10      9      8      7
    66  28     13      9      8      7
    67  22      3      9      8     36
    68  22     10      9      8     36
    69  29     13      9      8     36
    70  22      3      9      8     37
    71  22     10      9      8     37
    72  29     13      9      8     37
    73  17     11     10      9      8
    74  17     17     10      9      8
    75  18     11     10      9      3
    76  18     17     10      9      3
    77  17     11     10      9     13
    78  17     17     10      9     13
    79  28      8      9     13     12
    80  29      8      9     13     40
    81  29      8      9     13     41
    82  21      3      9     13     12
    83  22      3      9     13     40
    84  22      3      9     13     41
    85  21     10      9     13     12
    86  22     10      9     13     40
    87  22     10      9     13     41
    88  14      9     10     11     12
    89  30     14     11     10      9
    90  30     17     10     11     12
    91  31     17     10     11     14
    92  31     11     10     17     16
    93  32     11     10     17     43
    94  30     16     17     10      9
    95  33      9     10     17     43
    96  17     10     11     12     13
    97  19     10     11     12     38
    98  19     10     11     12     39
    99  17     14     11     12     13
   100  19     14     11     12     38
   101  19     14     11     12     39
   102  31     10     11     14     15
   103  32     10     11     14     42
   104  30     15     14     11     12
   105  33     12     11     14     42
   106  21     11     12     13      9
   107  22     11     12     13     40
   108  22     11     12     13     41
   109  23     38     12     13      9
   110  24     38     12     13     40
   111  24     38     12     13     41
   112  23     39     12     13      9
   113  24     39     12     13     40
   114  24     39     12     13     41
   115  26     11     12     38     50
   116  26     11     12     38     51
   117  26     11     12     38     52
   118  25     13     12     38     50
   119  25     13     12     38     51
   120  25     13     12     38     52
   121  27     39     12     38     50
   122  27     39     12     38     51
   123  27     39     12     38     52
   124  26     11     12     39     53
   125  26     11     12     39     54
   126  26     11     12     39     55
   127  25     13     12     39     53
   128  25     13     12     39     54
   129  25     13     12     39     55
   130  27     38     12     39     53
   131  27     38     12     39     54
   132  27     38     12     39     55
   133  31     11     14     15     16
   134  34     11     14     15     21
   135  32     16     15     14     42
   136  35     21     15     14     42
   137  31     14     15     16     17
   138  34     14     15     16     18
   139  34     17     16     15     21
   140  36     21     15     16     18
   141  37     14     15     21     20
   142  37     16     15     21     20
   143  31     15     16     17     10
   144  32     15     16     17     43
   145  34     10     17     16     18
   146  35     18     16     17     43
   147  37     15     16     18     19
   148  37     17     16     18     19
   149  37     20     19     18     16
   150  37     25     19     18     16
   151  36     18     19     20     21
   152  34     22     20     19     18
   153  34     25     19     20     21
   154  31     25     19     20     22
   155  38     18     19     25     24
   156  39     18     19     25     28
   157  40     20     19     25     24
   158  41     20     19     25     28
   159  37     19     20     21     15
   160  37     22     20     21     15
   161  40     19     20     22     23
   162  41     19     20     22     29
   163  38     21     20     22     23
   164  39     21     20     22     29
   165  42     20     22     23     24
   166  43     29     22     23     24
   167  44     23     22     29     31
   168  45     20     22     29     31
   169  46     22     23     24     25
   170  42     19     25     24     23
   171  43     28     25     24     23
   172  44     24     25     28     30
   173  45     19     25     28     30

