LAMMPS data file. msi2lmp v3.9.10 / 10 Mar 2023 / CGCMM for sol_0_opt

   2880 atoms
   3168 bonds
   5568 angles
   8928 dihedrals
   1344 impropers

   4 atom types
   6 bond types
   9 angle types
  13 dihedral types
   3 improper types

     1.191086294    31.234886294 xlo xhi
    -0.460264444    40.365023648 ylo yhi
     0.358694261    36.176184992 zlo zhi
     0.833711377    -0.561255055    -0.834211645 xy xz yz

Masses

   1  12.011150 # cp
   2   1.007970 # h
   3  12.011150 # c
   4  12.011150 # c2

Pair Coeffs # lj/cut/coul/long

   1   0.1479999981   3.6170487995 # cp
   2   0.0380000011   2.4499714540 # h
   3   0.1599999990   3.4745050026 # c
   4   0.0389999952   3.8754094636 # c2

Bond Coeffs # harmonic

   1   480.0000     1.3400 # cp-cp
   2   283.0924     1.5100 # cp-c2
   3   363.4164     1.0800 # cp-h
   4   283.0924     1.5100 # cp-c
   5   322.7158     1.5260 # c2-c2
   6   340.6175     1.1050 # h-c2

Angle Coeffs # harmonic

   1    90.0000   120.0000 # cp-cp-cp
   2    44.2000   120.0000 # cp-cp-c2
   3    37.0000   120.0000 # cp-cp-h
   4    44.2000   120.0000 # cp-cp-c
   5    46.6000   110.5000 # cp-c-cp
   6    46.6000   110.5000 # cp-c2-c2
   7    44.4000   110.0000 # cp-c2-h
   8    44.4000   110.0000 # h-c2-c2
   9    39.5000   106.4000 # h-c2-h

Dihedral Coeffs # harmonic

  1     3.0000  -1   2 # cp-cp-cp-cp
  2     3.0000  -1   2 # cp-cp-cp-h
  3     3.0000  -1   2 # cp-cp-cp-c2
  4     3.0000  -1   2 # h-cp-cp-c2
  5     0.0000   1   2 # cp-cp-c2-c2
  6     0.0000   1   2 # cp-cp-c2-h
  7     3.0000  -1   2 # h-cp-cp-h
  8     3.0000  -1   2 # cp-cp-cp-c
  9     3.0000  -1   2 # h-cp-cp-c
 10     0.6750   1   4 # cp-cp-c-cp
 11     0.1581   1   3 # cp-c2-c2-cp
 12     0.1581   1   3 # cp-c2-c2-h
 13     0.1581   1   3 # h-c2-c2-h

Improper Coeffs # cvff

    1     0.3700  -1   2 # cp-cp-cp-c2
    2     0.3700  -1   2 # cp-cp-cp-h
    3     0.3700  -1   2 # cp-cp-cp-c

Atoms # full

      1      1   1  0.000000    27.267435442    17.560774022     6.539020195   0   0   0 # cp
      2      1   1 -0.100000    26.989990138    18.186297798     5.352386727   0   0   0 # cp
      3      1   1 -0.100000    25.758979676    18.047055052     4.757637294   0   0   0 # cp
      4      1   1  0.000000    24.730559005    17.350556226     5.424558971   0   0   0 # cp
      5      1   1 -0.100000    25.081592337    16.676754589     6.606894340   0   0   0 # cp
      6      1   1 -0.100000    26.354210882    16.767129993     7.126247956   0   0   0 # cp
      7      1   2  0.100000    27.673517966    18.886359727     4.926874937   0   0   0 # h
      8      1   2  0.100000    25.571821154    18.633844004     3.884406870   0   0   0 # h
      9      1   2  0.100000    24.347781070    16.088313644     7.130366967   0   0   0 # h
     10      1   2  0.100000    26.538431442    16.332703893     8.101020966   0   0   0 # h
     11      1   1 -0.100000    23.549836261    17.278285350     2.480182146   0   0   0 # cp
     12      1   1  0.000000    22.817433002    17.768382628     3.549871506   0   0   0 # cp
     13      1   1 -0.100000    21.680652264    18.462417039     3.251690896   0   0   0 # cp
     14      1   1 -0.100000    21.322525974    18.744761196     1.970499253   0   0   0 # cp
     15      1   1  0.000000    22.049945982    18.218820319     0.923553998   0   0   0 # cp
     16      1   1 -0.100000    23.192324694    17.508244347     1.186991643   0   0   0 # cp
     17      1   3  0.000000    23.197635169    17.619850672     5.080531973   0   0   0 # c
     18      1   1  0.000000    23.115384160    19.032504125     5.847563537   0   0   0 # cp
     19      1   1 -0.100000    22.928718187    19.049898193     7.221701569   0   0   0 # cp
     20      1   1 -0.100000    22.555830590    -0.170696560     7.907427429   0   0   0 # cp
     21      1   1  0.000000    22.810650965     1.012643827     7.240505751   0   0   0 # cp
     22      1   1 -0.100000    22.967442067     1.000347726     5.901647948   0   0   0 # cp
     23      1   1 -0.100000    23.323400723    20.242909651     5.192998894   0   0   0 # cp
     24      1   1 -0.100000    22.513294055    15.177884275     5.571410683   0   0   0 # cp
     25      1   1 -0.100000    21.978549048    14.307408091     6.495143769   0   0   0 # cp
     26      1   1  0.000000    21.125501603    14.776969382     7.508778757   0   0   0 # cp
     27      1   1 -0.100000    20.558151473    16.038415114     7.274532367   0   0   0 # cp
     28      1   1 -0.100000    20.993957698    16.844027270     6.269851752   0   0   0 # cp
     29      1   1  0.000000    22.168178986    16.506829547     5.611705360   0   0   0 # cp
     30      1   3  0.000000    21.094164982    13.985109284     8.922136941   0   0   0 # c
     31      1   1  0.000000    18.944116829    10.177656089     9.329023636   0   0   0 # cp
     32      1   1 -0.100000    19.723411273    10.645625057    10.375968890   0   0   0 # cp
     33      1   1 -0.100000    20.469915779    11.802460074    10.216043794   0   0   0 # cp
     34      1   1  0.000000    20.388446840    12.536000616     9.010427056   0   0   0 # cp
     35      1   1 -0.100000    19.646415251    12.001631394     7.992314882   0   0   0 # cp
     36      1   1 -0.100000    18.930001492    10.835314797     8.156179902   0   0   0 # cp
     37      1   1  0.000000    20.243305359    14.745377951    10.004541511   0   0   0 # cp
     38      1   1 -0.100000    20.720700140    15.006043494    11.284300455   0   0   0 # cp
     39      1   1 -0.100000    19.914151243    15.471197935    12.276803123   0   0   0 # cp
     40      1   1  0.000000    18.575006796    15.743451874    12.016051790   0   0   0 # cp
     41      1   1 -0.100000    18.124762812    15.672832474    10.727338474   0   0   0 # cp
     42      1   1 -0.100000    18.912700875    15.064979861     9.779249494   0   0   0 # cp
     43      1   1 -0.100000    23.376244083    12.719561616     8.964401580   0   0   0 # cp
     44      1   1 -0.100000    24.705813444    12.647985079     9.215482190   0   0   0 # cp
     45      1   1  0.000000    25.418842371    13.712844702     9.691675729   0   0   0 # cp
     46      1   1 -0.100000    24.769102352    14.895275028     9.949024400   0   0   0 # cp
     47      1   1 -0.100000    23.436892101    14.961301846     9.725881433   0   0   0 # cp
     48      1   1  0.000000    22.668929290    13.877357591     9.280311848   0   0   0 # cp
     49      1   2  0.100000    24.468386718    16.721269238     2.653538801   0   0   0 # h
     50      1   2  0.100000    21.042316217    18.792336692     4.064568848   0   0   0 # h
     51      1   2  0.100000    20.390319773    19.274407936     1.789083662   0   0   0 # h
     52      1   2  0.100000    23.236121748    16.329958182    36.168323053   0   0  -1 # h
     53      1   2  0.100000    22.831084780    18.148525968     7.789229709   0   0   0 # h
     54      1   2  0.100000    22.901886432    20.183294243     8.988399299   0   0   0 # h
     55      1   2  0.100000    23.115420247     1.934532213     5.406471138   0   0   0 # h
     56      1   2  0.100000    23.490324274    20.306486701     4.119727784   0   0   0 # h
     57      1   2  0.100000    23.322782324    14.879829031     4.906638055   0   0   0 # h
     58      1   2  0.100000    22.407436067    13.303363588     6.519141488   0   0   0 # h
     59      1   2  0.100000    19.850102792    16.464232655     7.940200433   0   0   0 # h
     60      1   2  0.100000    20.592134701    17.851275231     6.248540345   0   0   0 # h
     61      1   2  0.100000    19.826100457    10.099343115    11.306686386   0   0   0 # h
     62      1   2  0.100000    21.040746013    12.165143213    11.059545700   0   0   0 # h
     63      1   2  0.100000    19.652440624    12.483023260     7.016825522   0   0   0 # h
     64      1   2  0.100000    18.329447765    10.459049844     7.352435410   0   0   0 # h
     65      1   2  0.100000    21.720998296    14.721386107    11.604329734   0   0   0 # h
     66      1   2  0.100000    20.334084910    15.581772491    13.261067768   0   0   0 # h
     67      1   2  0.100000    17.109611513    15.871133991    10.477869651   0   0   0 # h
     68      1   2  0.100000    18.468443514    14.879102993     8.811639982   0   0   0 # h
     69      1   2  0.100000    22.933474425    11.880608162     8.464568497   0   0   0 # h
     70      1   2  0.100000    25.198936616    11.693798672     9.053228957   0   0   0 # h
     71      1   2  0.100000    25.304770641    15.757195602    10.277828965   0   0   0 # h
     72      1   2  0.100000    22.958982715    15.910282092     9.848735426   0   0   0 # h
     73      1   1  0.000000    10.485784822    19.368434182     7.550506134   0   0   0 # cp
     74      1   1 -0.100000    10.504698469    -0.005729285     8.344221728   0   0   0 # cp
     75      1   1 -0.100000    11.493366677    -0.213590443     9.275834662   0   0   0 # cp
     76      1   1  0.000000    12.603224712    18.998443935     9.290698921   0   0   0 # cp
     77      1   1 -0.100000    11.953534074    17.928463870     8.692546825   0   0   0 # cp
     78      1   1 -0.100000    10.916351833    18.099043182     7.819137314   0   0   0 # cp
     79      1   2  0.100000    10.190608080     0.995846038     8.137017544   0   0   0 # h
     80      1   2  0.100000    11.937730672     0.692460853     9.681825919   0   0   0 # h
     81      1   2  0.100000    12.396844119    16.940114376     8.638641502   0   0   0 # h
     82      1   2  0.100000    10.562039598    17.299582236     7.166184458   0   0   0 # h
     83      1   1 -0.100000    13.837891293    19.632842170    12.070136201   0   0   0 # cp
     84      1   1  0.000000    14.691994722    19.465977663    10.978598171   0   0   0 # cp
     85      1   1 -0.100000    16.073292540    19.421550708    11.203352926   0   0   0 # cp
     86      1   1 -0.100000    16.564065916    19.373606526    12.473082972   0   0   0 # cp
     87      1   1  0.000000    15.713208231    19.381531870    13.552622143   0   0   0 # cp
     88      1   1 -0.100000    14.349977347    19.598974370    13.340224423   0   0   0 # cp
     89      1   3  0.000000    14.181905307    19.018240453     9.562553675   0   0   0 # c
     90      1   1  0.000000    14.692419160    20.008445904     8.397410702   0   0   0 # cp
     91      1   1 -0.100000    14.486058330    19.688656900     7.035629704   0   0   0 # cp
     92      1   1 -0.100000    14.258566510     0.189728347     6.043306124   0   0   0 # cp
     93      1   1  0.000000    14.554467554     1.493736738     6.374259738   0   0   0 # cp
     94      1   1 -0.100000    14.779490294     1.840896646     7.691447960   0   0   0 # cp
     95      1   1 -0.100000    14.632726777     0.914370984     8.690397776   0   0   0 # cp
     96      1   1 -0.100000    14.202086181    16.593614331    10.413219080   0   0   0 # cp
     97      1   1 -0.100000    14.252479833    15.256129289    10.222490942   0   0   0 # cp
     98      1   1  0.000000    14.667287142    14.726848247     9.003442645   0   0   0 # cp
     99      1   1 -0.100000    15.324487958    15.575019403     8.117138837   0   0   0 # cp
    100      1   1 -0.100000    15.366644965    16.945678823     8.390963554   0   0   0 # cp
    101      1   1  0.000000    14.701080454    17.477404616     9.487516032   0   0   0 # cp
    102      1   3  0.000000    14.147106561    13.273764138     8.561275722   0   0   0 # c
    103      1   1  0.000000    15.963282176    10.089102576    10.764767752   0   0   0 # cp
    104      1   1 -0.100000    14.777140222     9.859848668    10.160884858   0   0   0 # cp
    105      1   1 -0.100000    14.087730920    10.882717836     9.591565843   0   0   0 # cp
    106      1   1  0.000000    14.605476593    12.171238752     9.597117554   0   0   0 # cp
    107      1   1 -0.100000    15.724153395    12.376975472    10.378117939   0   0   0 # cp
    108      1   1 -0.100000    16.337850562    11.377307427    11.038055206   0   0   0 # cp
    109      1   1  0.000000    14.649423337    12.606693237     7.210956321   0   0   0 # cp
    110      1   1 -0.100000    13.790143745    11.791850284     6.473474187   0   0   0 # cp
    111      1   1 -0.100000    14.254274797    11.033758994     5.437811443   0   0   0 # cp
    112      1   1  0.000000    15.585701205    11.033409733     5.128527410   0   0   0 # cp
    113      1   1 -0.100000    16.422046004    11.882252082     5.799747187   0   0   0 # cp
    114      1   1 -0.100000    15.964865339    12.681577679     6.809084075   0   0   0 # cp
    115      1   1 -0.100000    11.774923575    13.215414360     9.664275349   0   0   0 # cp
    116      1   1 -0.100000    10.468668761    13.645178490     9.704749114   0   0   0 # cp
    117      1   1  0.000000     9.900806369    14.340430682     8.644372300   0   0   0 # cp
    118      1   1 -0.100000    10.691226818    14.631184286     7.554266970   0   0   0 # cp
    119      1   1 -0.100000    12.005283348    14.214271269     7.531701951   0   0   0 # cp
    120      1   1  0.000000    12.546957609    13.516224383     8.571841882   0   0   0 # cp
    121      1   2  0.100000    12.773484527    19.663202190    11.949789433   0   0   0 # h
    122      1   2  0.100000    16.754821187    19.358112249    10.377580677   0   0   0 # h
    123      1   2  0.100000    17.624787177    19.204566168    12.570506547   0   0   0 # h
    124      1   2  0.100000    13.619978939    19.560620727    14.154355987   0   0   0 # h
    125      1   2  0.100000    14.124888030    18.722531226     6.728673809   0   0   0 # h
    126      1   2  0.100000    14.542062567    20.286514908     5.003524368   0   0   0 # h
    127      1   2  0.100000    14.922642691     2.877542643     7.967958988   0   0   0 # h
    128      1   2  0.100000    14.783346742     1.299811582     9.696152916   0   0   0 # h
    129      1   2  0.100000    13.691600992    16.942628063    11.300239238   0   0   0 # h
    130      1   2  0.100000    13.819293548    14.584318865    10.977523647   0   0   0 # h
    131      1   2  0.100000    15.632642448    15.282867994     7.137530465   0   0   0 # h
    132      1   2  0.100000    15.844714005    17.573322600     7.647929708   0   0   0 # h
    133      1   2  0.100000    14.412825849     8.865846114     9.964067746   0   0   0 # h
    134      1   2  0.100000    13.202910020    10.666403654     8.966729717   0   0   0 # h
    135      1   2  0.100000    16.247489472    13.334352227    10.420919841   0   0   0 # h
    136      1   2  0.100000    17.302246444    11.592235372    11.485773840   0   0   0 # h
    137      1   2  0.100000    12.741935865    11.687496216     6.747119816   0   0   0 # h
    138      1   2  0.100000    13.526776115    10.404460078     4.937262010   0   0   0 # h
    139      1   2  0.100000    17.478393415    11.862829682     5.555650987   0   0   0 # h
    140      1   2  0.100000    16.685523211    13.204427720     7.419055943   0   0   0 # h
    141      1   2  0.100000    12.141670719    12.689534592    10.525327826   0   0   0 # h
    142      1   2  0.100000     9.904910005    13.432624211    10.574935051   0   0   0 # h
    143      1   2  0.100000    10.252114335    15.186960661     6.750522478   0   0   0 # h
    144      1   2  0.100000    12.602847267    14.525484589     6.684976470   0   0   0 # h
    145      1   1  0.000000    14.625420136    19.572846935    16.749512278   0   0   0 # cp
    146      1   1 -0.100000    14.108439784    18.342646167    17.088345740   0   0   0 # cp
    147      1   1 -0.100000    12.751552114    18.214793809    17.319189468   0   0   0 # cp
    148      1   1  0.000000    11.907518597    19.317113787    17.186127490   0   0   0 # cp
    149      1   1 -0.100000    12.106051479     0.147030543    16.991459428   0   0   0 # cp
    150      1   1 -0.100000    13.426349192     0.259391424    16.715843837   0   0   0 # cp
    151      1   2  0.100000    14.708420081    17.440165890    17.081182242   0   0   0 # h
    152      1   2  0.100000    12.339478501    17.223756365    17.442043461   0   0   0 # h
    153      1   2  0.100000    11.493656321     1.023681675    17.029605055   0   0   0 # h
    154      1   2  0.100000    13.803240347     1.250240065    16.495924444   0   0   0 # h
    155      1   1 -0.100000    10.028751831     0.515797203     1.613936132   0   0   0 # cp
    156      1   1  0.000000    10.309182439    19.738984312     0.887020158   0   0   0 # cp
    157      1   1 -0.100000    10.153379461    18.574304214     1.646709136   0   0   0 # cp
    158      1   1 -0.100000    10.205315618    18.553477096     3.005445647   0   0   0 # cp
    159      1   1  0.000000    10.511392610    19.715578963     3.662338427   0   0   0 # cp
    160      1   1 -0.100000    10.166065810     0.467684391     2.952256673   0   0   0 # cp
    161      1   3  0.000000    10.302729027    19.231770718    17.239495551   0   0   0 # c
    162      1   1  0.000000     9.540116126    17.947774892    16.627732809   0   0   0 # cp
    163      1   1 -0.100000    10.132739308    17.026422968    15.774381093   0   0   0 # cp
    164      1   1 -0.100000     9.440864508    15.981098193    15.256997439   0   0   0 # cp
    165      1   1  0.000000     8.194436401    15.700760659    15.724594781   0   0   0 # cp
    166      1   1 -0.100000     7.533076790    16.643690230    16.484104672   0   0   0 # cp
    167      1   1 -0.100000     8.185895113    17.764736210    16.905497450   0   0   0 # cp
    168      1   1 -0.100000     8.536466167     0.932252186    16.371458663   0   0   0 # cp
    169      1   1 -0.100000     8.059515723     1.707197111    15.307500101   0   0   0 # cp
    170      1   1  0.000000     8.485255901     1.472589100    14.022010359   0   0   0 # cp
    171      1   1 -0.100000     9.364508988     0.426063996    13.810328989   0   0   0 # cp
    172      1   1 -0.100000     9.823931520    -0.322901626    14.836858273   0   0   0 # cp
    173      1   1  0.000000     9.388534972    -0.139676105    16.154941932   0   0   0 # cp
    174      1   3  0.000000     7.949804411     2.268953854    12.704463962   0   0   0 # c
    175      1   1  0.000000     4.540713005     5.007528140    12.511049512   0   0   0 # cp
    176      1   1 -0.100000     5.469431647     4.915837749    11.513532395   0   0   0 # cp
    177      1   1 -0.100000     6.543857124     4.094832437    11.671666617   0   0   0 # cp
    178      1   1  0.000000     6.677098884     3.223327107    12.744758639   0   0   0 # cp
    179      1   1 -0.100000     5.608493132     3.171636210    13.640733170   0   0   0 # cp
    180      1   1 -0.100000     4.622640594     4.147445805    13.575724424   0   0   0 # cp
    181      1   1  0.000000     7.511802950     1.224017672    11.574422130   0   0   0 # cp
    182      1   1 -0.100000     7.635370523     1.495616845    10.193657862   0   0   0 # cp
    183      1   1 -0.100000     6.763873909     0.923864393     9.281923635   0   0   0 # cp
    184      1   1  0.000000     5.783307146     0.064690500     9.764206148   0   0   0 # cp
    185      1   1 -0.100000     6.281896933    19.978303788    11.050054065   0   0   0 # cp
    186      1   1 -0.100000     6.683683372     0.196088756    11.940297797   0   0   0 # cp
    187      1   1 -0.100000     9.554119553     4.259250489    13.087352938   0   0   0 # cp
    188      1   1 -0.100000    10.790405815     4.853066562    13.095590961   0   0   0 # cp
    189      1   1  0.000000    11.832300114     4.293576678    12.384792857   0   0   0 # cp
    190      1   1 -0.100000    11.599040020     3.163561989    11.664861294   0   0   0 # cp
    191      1   1 -0.100000    10.377297337     2.561513611    11.677039241   0   0   0 # cp
    192      1   1  0.000000     9.318687041     3.073012161    12.415058637   0   0   0 # cp
    193      1   2  0.100000    10.263745872     1.438087878     1.129862745   0   0   0 # h
    194      1   2  0.100000    10.053015247    17.634754219     1.136488981   0   0   0 # h
    195      1   2  0.100000    10.071343191    17.625552260     3.556139567   0   0   0 # h
    196      1   2  0.100000    10.452317427     1.371924171     3.479848312   0   0   0 # h
    197      1   2  0.100000    11.161130729    17.104470773    15.464559798   0   0   0 # h
    198      1   2  0.100000     9.975056365    15.251572089    14.651323671   0   0   0 # h
    199      1   2  0.100000     6.527694799    16.417045951    16.819893647   0   0   0 # h
    200      1   2  0.100000     7.648872049    18.498478316    17.505440420   0   0   0 # h
    201      1   2  0.100000     8.108427205     1.090776366    17.330292890   0   0   0 # h
    202      1   2  0.100000     7.479225013     2.575361077    15.534762080   0   0   0 # h
    203      1   2  0.100000     9.598412212     0.137908546    12.799380313   0   0   0 # h
    204      1   2  0.100000    10.946092231    19.328320409    14.592762074   0   0   0 # h
    205      1   2  0.100000     5.351488214     5.459003314    10.593918321   0   0   0 # h
    206      1   2  0.100000     7.293518229     4.076671231    10.891382581   0   0   0 # h
    207      1   2  0.100000     5.594110352     2.427809587    14.437851426   0   0   0 # h
    208      1   2  0.100000     3.805927777     4.181168034    14.301386786   0   0   0 # h
    209      1   2  0.100000     8.228245357     2.340488693     9.878463944   0   0   0 # h
    210      1   2  0.100000     6.721972746     1.303972261     8.299270777   0   0   0 # h
    211      1   2  0.100000     5.508060951    19.343945545    11.476640380   0   0   0 # h
    212      1   2  0.100000     6.558773291    -0.046797623    12.973453318   0   0   0 # h
    213      1   2  0.100000     8.800342128     4.633757470    13.747469292   0   0   0 # h
    214      1   2  0.100000    10.924808445     5.738704022    13.685684121   0   0   0 # h
    215      1   2  0.100000    12.398993842     2.710230195    11.102526689   0   0   0 # h
    216      1   2  0.100000    10.325341251     1.584012017    11.192428591   0   0   0 # h
    217      1   1  0.000000    22.707494444    18.844698644    15.751636986   0   0   0 # cp
    218      1   1 -0.100000    22.794671422    18.090763600    14.616401617   0   0   0 # cp
    219      1   1 -0.100000    23.996218347    17.822079409    14.031501994   0   0   0 # cp
    220      1   1  0.000000    25.158946990    18.408566251    14.520948005   0   0   0 # cp
    221      1   1 -0.100000    25.077303557    19.159617732    15.683583754   0   0   0 # cp
    222      1   1 -0.100000    23.863772084    19.405289604    16.274930526   0   0   0 # cp
    223      1   2  0.100000    21.930456973    17.666460067    14.174951044   0   0   0 # h
    224      1   2  0.100000    24.023873001    17.122162707    13.188716437   0   0   0 # h
    225      1   2  0.100000    25.914388785    19.624216319    16.165329004   0   0   0 # h
    226      1   2  0.100000    23.825627628    19.985532456    17.172695931   0   0   0 # h
    227      1   1 -0.100000    26.074826899    18.724642609    11.475924030   0   0   0 # cp
    228      1   1  0.000000    26.800329154    17.954788758    12.382643808   0   0   0 # cp
    229      1   1 -0.100000    27.925530596    17.325684861    11.908778406   0   0   0 # cp
    230      1   1 -0.100000    28.384564836    17.541620933    10.639227447   0   0   0 # cp
    231      1   1  0.000000    27.711239478    18.383525969     9.776563182   0   0   0 # cp
    232      1   1 -0.100000    26.520415397    18.949052397    10.193120600   0   0   0 # cp
    233      1   3  0.000000    26.618840067    18.079163723    13.975089446   0   0   0 # c
    234      1   1  0.000000    26.801855318    16.724038933    14.839723672   0   0   0 # cp
    235      1   1 -0.100000    27.150660060    16.778980775    16.179297825   0   0   0 # cp
    236      1   1 -0.100000    27.237446934    15.653201235    16.942747640   0   0   0 # cp
    237      1   1  0.000000    27.026028809    14.427483678    16.396709994   0   0   0 # cp
    238      1   1 -0.100000    26.651712477    14.357486531    15.054986791   0   0   0 # cp
    239      1   1 -0.100000    26.537306477    15.482703745    14.289387927   0   0   0 # cp
    240      1   1 -0.100000    26.755254982     0.185348360    13.830028608   0   0   0 # cp
    241      1   1 -0.100000    27.444928448     1.306206558    14.119254846   0   0   0 # cp
    242      1   1  0.000000    28.612593359     1.213515359    14.873750288   0   0   0 # cp
    243      1   1 -0.100000    29.024755267    -0.074064176    15.301052953   0   0   0 # cp
    244      1   1 -0.100000    28.738079487    19.236473639    14.960428616   0   0   0 # cp
    245      1   1  0.000000    27.577265067    19.332588339    14.234228991   0   0   0 # cp
    246      1   3  0.000000    29.237651913     2.537516052    15.476916832   0   0   0 # c
    247      1   1  0.000000    31.160735881     5.133488795    12.580535444  -1   0   0 # cp
    248      1   1 -0.100000    30.844709447     5.616949069    13.821253323  -1   0   0 # cp
    249      1   1 -0.100000    30.115217030     4.840455746    14.697528234  -1   0   0 # cp
    250      1   1  0.000000    29.620182604     3.591612313    14.338099714   0   0   0 # cp
    251      1   1 -0.100000    29.876492366     3.178531822    13.029149516   0   0   0 # cp
    252      1   1 -0.100000    30.629525453     3.949392771    12.158068141  -1   0   0 # cp
    253      1   1  0.000000    30.656533730     2.309658165    16.145271209  -1   0   0 # cp
    254      1   1 -0.100000    30.959527452     2.885884117    17.364498594  -1   0   0 # cp
    255      1   1 -0.100000     2.196064392     2.798415850    17.868450688   0   0   0 # cp
    256      1   1  0.000000     3.183037398     2.159587772    17.146011900   0   0   0 # cp
    257      1   1 -0.100000     2.905577526     1.606169502    15.937887938   0   0   0 # cp
    258      1   1 -0.100000     1.624790216     1.692425268    15.442173866   0   0   0 # cp
    259      1   1 -0.100000    27.389786018     4.149090891    16.309673492   0   0   0 # cp
    260      1   1 -0.100000    26.264469319     4.378749221    17.045185664   0   0   0 # cp
    261      1   1  0.000000    25.576937046     3.093964547    35.950373622   0   0  -1 # cp
    262      1   1 -0.100000    26.905463691     2.828642905     0.417990117   0   0   0 # cp
    263      1   1 -0.100000    27.743101272     2.159946737    17.551286808   0   0   0 # cp
    264      1   1  0.000000    28.105831761     3.006731656    16.487865508   0   0   0 # cp
    265      1   2  0.100000    25.196669582    19.271339267    11.754405021   0   0   0 # h
    266      1   2  0.100000    28.550224325    16.752265936    12.576058258   0   0   0 # h
    267      1   2  0.100000    29.347665356    17.130893595    10.351075734   0   0   0 # h
    268      1   2  0.100000    25.998236894    19.669986469     9.581357858   0   0   0 # h
    269      1   2  0.100000    27.279303505    17.724180084    16.674832810   0   0   0 # h
    270      1   2  0.100000    27.170877670    15.332845211    35.921003279   0   0  -1 # h
    271      1   2  0.100000    26.444428423    13.401308489    14.618908842   0   0   0 # h
    272      1   2  0.100000    26.194646556    15.427498273    13.276648377   0   0   0 # h
    273      1   2  0.100000    25.787479591     0.362494360    13.340761685   0   0   0 # h
    274      1   2  0.100000    27.035791023     2.283274961    13.886262069   0   0   0 # h
    275      1   2  0.100000    29.865644468    -0.199659910    16.004687558  -1   0   0 # h
    276      1   2  0.100000    29.100584928    18.292557480    15.321289835   0   0   0 # h
    277      1   2  0.100000     1.136163523     6.615768598    14.118001234   0   0   0 # h
    278      1   2  0.100000    30.036246743     5.164348986    15.742861701  -1   0   0 # h
    279      1   2  0.100000    29.618816672     2.187929447    12.660050274   0   0   0 # h
    280      1   2  0.100000    30.855914439     3.603827738    11.149268515  -1   0   0 # h
    281      1   2  0.100000    29.981063542     3.031625115    35.866202518  -1   0  -1 # h
    282      1   2  0.100000     2.644155869     3.588668802     0.967430425   0   0   0 # h
    283      1   2  0.100000     3.681766655     1.154381255    15.300515690   0   0   0 # h
    284      1   2  0.100000     1.494502544     1.343015201    14.431941540   0   0   0 # h
    285      1   2  0.100000    27.596941892     4.860144154    15.534941167   0   0   0 # h
    286      1   2  0.100000    25.729170946     5.280877173    16.848368552   0   0   0 # h
    287      1   2  0.100000    26.625365492     2.065776427     1.138638030   0   0   0 # h
    288      1   2  0.100000    28.287981808     1.262176604    17.736284148   0   0   0 # h
    289      1   1  0.000000     4.992296732     0.696927566     5.213056688   0   0   0 # cp
    290      1   1 -0.100000     6.304745507     0.560419415     4.842703834   0   0   0 # cp
    291      1   1 -0.100000     7.194263756     1.603478712     4.905205356   0   0   0 # cp
    292      1   1  0.000000     6.808383006     2.841283739     5.370474560   0   0   0 # cp
    293      1   1 -0.100000     5.481089492     2.970924882     5.799030837   0   0   0 # cp
    294      1   1 -0.100000     4.605292409     1.897780259     5.722381407   0   0   0 # cp
    295      1   2  0.100000     7.083042669    20.053304113     4.376718280   0   0   0 # h
    296      1   2  0.100000     8.189777851     1.429749662     4.502795847   0   0   0 # h
    297      1   2  0.100000     5.083992374     3.947160604     5.978655553   0   0   0 # h
    298      1   2  0.100000     3.581910146     2.064943043     6.012323994   0   0   0 # h
    299      1   1 -0.100000     6.058896589     5.035116153     3.289657436   0   0   0 # cp
    300      1   1  0.000000     7.241999121     4.402378581     3.567780252   0   0   0 # cp
    301      1   1 -0.100000     7.904435543     3.812221807     2.499702678   0   0   0 # cp
    302      1   1 -0.100000     7.369695042     3.836804067     1.225137270   0   0   0 # cp
    303      1   1  0.000000     6.141528878     4.361165652     0.998949816   0   0   0 # cp
    304      1   1 -0.100000     5.477919744     4.946270084     2.038552485   0   0   0 # cp
    305      1   3  0.000000     7.718226127     4.141195133     5.053489767   0   0   0 # c
    306      1   1  0.000000     9.311416188     3.958782536     5.146615243   0   0   0 # cp
    307      1   1 -0.100000    10.168183909     4.660730892     4.315828546   0   0   0 # cp
    308      1   1 -0.100000    11.467728441     4.266159846     4.131547556   0   0   0 # cp
    309      1   1  0.000000    12.015934005     3.283118911     4.892669234   0   0   0 # cp
    310      1   1 -0.100000    11.239299187     2.729889435     5.928869241   0   0   0 # cp
    311      1   1 -0.100000     9.891651250     3.095167911     6.056200420   0   0   0 # cp
    312      1   1 -0.100000     7.806461748     6.609811006     5.688354790   0   0   0 # cp
    313      1   1 -0.100000     8.030933920     7.581837702     6.635906508   0   0   0 # cp
    314      1   1  0.000000     7.948550163     7.330513528     8.022580661   0   0   0 # cp
    315      1   1 -0.100000     7.434473903     6.076559269     8.355862413   0   0   0 # cp
    316      1   1 -0.100000     7.292022509     5.085827509     7.422637692   0   0   0 # cp
    317      1   1  0.000000     7.516906793     5.323282577     6.070527417   0   0   0 # cp
    318      1   3  0.000000     8.771562157     8.238744922     9.097463558   0   0   0 # c
    319      1   1  0.000000    12.628613979     6.602234908     7.924261649   0   0   0 # cp
    320      1   1 -0.100000    12.470261026     7.988913317     8.009865452   0   0   0 # cp
    321      1   1 -0.100000    11.318323378     8.513007099     8.540143402   0   0   0 # cp
    322      1   1  0.000000    10.247721607     7.720049082     8.887573063   0   0   0 # cp
    323      1   1 -0.100000    10.533080005     6.376193301     9.022963177   0   0   0 # cp
    324      1   1 -0.100000    11.672487951     5.811452820     8.511310322   0   0   0 # cp
    325      1   1  0.000000     8.460108493     8.037188611    10.678626686   0   0   0 # cp
    326      1   1 -0.100000     7.159789371     7.744117520    11.096974978   0   0   0 # cp
    327      1   1 -0.100000     6.853456450     7.627664571    12.415954074   0   0   0 # cp
    328      1   1  0.000000     7.835928478     7.602625113    13.368341153   0   0   0 # cp
    329      1   1 -0.100000     9.112677695     7.974224957    13.005151797   0   0   0 # cp
    330      1   1 -0.100000     9.413815993     8.190512930    11.667905780   0   0   0 # cp
    331      1   1 -0.100000     7.384334830    10.471759813     9.357140366   0   0   0 # cp
    332      1   1 -0.100000     7.098176173    11.758720755     9.000219071   0   0   0 # cp
    333      1   1  0.000000     7.716073243    12.370780101     7.971003475   0   0   0 # cp
    334      1   1 -0.100000     8.684294813    11.696678072     7.308200809   0   0   0 # cp
    335      1   1 -0.100000     9.009084475    10.432196065     7.664047579   0   0   0 # cp
    336      1   1  0.000000     8.398452368     9.762513646     8.730871541   0   0   0 # cp
    337      1   2  0.100000     5.469790322     5.430939705     4.095013715   0   0   0 # h
    338      1   2  0.100000     8.788491755     3.194473738     2.607513325   0   0   0 # h
    339      1   2  0.100000     7.942840753     3.378917225     0.437689737   0   0   0 # h
    340      1   2  0.100000     4.471330554     5.327935624     1.926801914   0   0   0 # h
    341      1   2  0.100000     9.805246142     5.473821667     3.708722078   0   0   0 # h
    342      1   2  0.100000    12.044721897     4.705925154     3.348219034   0   0   0 # h
    343      1   2  0.100000    11.615622449     1.994735888     6.590239207   0   0   0 # h
    344      1   2  0.100000     9.237482714     2.643435244     6.801204227   0   0   0 # h
    345      1   2  0.100000     8.000892075     6.834167505     4.662004594   0   0   0 # h
    346      1   2  0.100000     8.393314938     8.492645455     6.215409167   0   0   0 # h
    347      1   2  0.100000     7.366985060     5.782261969     9.396539606   0   0   0 # h
    348      1   2  0.100000     7.107600735     4.066992009     7.810003854   0   0   0 # h
    349      1   2  0.100000    13.286157724     8.662699882     7.774723625   0   0   0 # h
    350      1   2  0.100000    11.229971010     9.562329961     8.666758232   0   0   0 # h
    351      1   2  0.100000     9.787243095     5.711537009     9.444535043   0   0   0 # h
    352      1   2  0.100000    11.716920704     4.735514866     8.510773060   0   0   0 # h
    353      1   2  0.100000     6.399099190     7.628491302    10.347135810   0   0   0 # h
    354      1   2  0.100000     5.813305546     7.543519276    12.680824418   0   0   0 # h
    355      1   2  0.100000     9.901888006     7.972436762    13.756781840   0   0   0 # h
    356      1   2  0.100000    10.453102074     8.427773145    11.428465855   0   0   0 # h
    357      1   2  0.100000     6.815286727    10.076184900    10.171271930   0   0   0 # h
    358      1   2  0.100000     6.384853318    12.340477022     9.570075348   0   0   0 # h
    359      1   2  0.100000     9.205180161    12.185446750     6.506784454   0   0   0 # h
    360      1   2  0.100000     9.751674850     9.955391263     7.049061263   0   0   0 # h
    361      1   1  0.000000     1.850849738     0.880842685     4.021229684   0   0   0 # cp
    362      1   1 -0.100000    30.991823363     0.314299535     4.901623607  -1   0   0 # cp
    363      1   1 -0.100000    30.122048315     1.096433482     5.597378364  -1   0   0 # cp
    364      1   1  0.000000    30.118416974     2.477923607     5.458764675  -1   0   0 # cp
    365      1   1 -0.100000    30.925011548     2.997425829     4.442085200  -1   0   0 # cp
    366      1   1 -0.100000     1.764846518     2.212630662     3.720362762   0   0   0 # cp
    367      1   2  0.100000    31.517702309    19.700270409     5.204818666  -1   0   0 # h
    368      1   2  0.100000    29.580855674     0.693109085     6.446252894   0   0   0 # h
    369      1   2  0.100000    31.007572447     4.059133498     4.291114477  -1   0   0 # h
    370      1   2  0.100000     2.498268091     2.643036202     3.049680248   0   0   0 # h
    371      1   1 -0.100000     1.761249664     3.644789155     7.760396629   0   0   0 # cp
    372      1   1  0.000000    30.516079458     3.114450701     7.804989405  -1   0   0 # cp
    373      1   1 -0.100000    30.298581659     2.070255596     8.693979525  -1   0   0 # cp
    374      1   1 -0.100000     1.259102469     1.525495750     9.427879910   0   0   0 # cp
    375      1   1  0.000000     2.540493665     2.031981374     9.355707666   0   0   0 # cp
    376      1   1 -0.100000     2.771160038     3.124939289     8.555365836   0   0   0 # cp
    377      1   3  0.000000    29.460466853     3.358332346     6.641458219   0   0   0 # c
    378      1   1  0.000000    27.987420772     3.122891221     7.214717158   0   0   0 # cp
    379      1   1 -0.100000    27.523014917     3.814455593     8.337237317   0   0   0 # cp
    380      1   1 -0.100000    26.305406691     3.527350646     8.876290553   0   0   0 # cp
    381      1   1  0.000000    25.520713159     2.556132111     8.358548724   0   0   0 # cp
    382      1   1 -0.100000    25.984829839     1.838650747     7.279546816   0   0   0 # cp
    383      1   1 -0.100000    27.170108777     2.144145546     6.678350234   0   0   0 # cp
    384      1   1 -0.100000    29.729860212     5.959697060     6.703780653   0   0   0 # cp
    385      1   1 -0.100000    29.151473413     7.183700062     6.473295100   0   0   0 # cp
    386      1   1  0.000000    28.086927582     7.333263458     5.573201558   0   0   0 # cp
    387      1   1 -0.100000    27.727211586     6.214425926     4.846643758   0   0   0 # cp
    388      1   1 -0.100000    28.328106300     5.008498925     5.063518665   0   0   0 # cp
    389      1   1  0.000000    29.253004093     4.830308626     6.079660877   0   0   0 # cp
    390      1   3  0.000000    27.135665227     8.604915341     5.487955930   0   0   0 # c
    391      1   1  0.000000    23.390538853     7.382381055     7.355658984   0   0   0 # cp
    392      1   1 -0.100000    23.375678380     8.278939968     6.276119813   0   0   0 # cp
    393      1   1 -0.100000    24.567857329     8.652116898     5.687459353   0   0   0 # cp
    394      1   1  0.000000    25.765248943     8.134972604     6.129626276   0   0   0 # cp
    395      1   1 -0.100000    25.744448131     7.301145457     7.267727044   0   0   0 # cp
    396      1   1 -0.100000    24.586116780     6.905202300     7.852268493   0   0   0 # cp
    397      1   1  0.000000    27.303842428     8.905393470     3.918970748   0   0   0 # cp
    398      1   1 -0.100000    28.527077036     9.389327209     3.491668084   0   0   0 # cp
    399      1   1 -0.100000    28.918542559     9.218273685     2.194358570   0   0   0 # cp
    400      1   1  0.000000    28.116397120     8.676882359     1.267401910   0   0   0 # cp
    401      1   1 -0.100000    26.863129857     8.284916009     1.619846018   0   0   0 # cp
    402      1   1 -0.100000    26.446223888     8.436959982     2.944555913   0   0   0 # cp
    403      1   1 -0.100000    26.996282154    11.149729113     5.822312206   0   0   0 # cp
    404      1   1 -0.100000    27.128075553    12.326530467     6.540452895   0   0   0 # cp
    405      1   1  0.000000    27.689907809    12.306431157     7.797825907   0   0   0 # cp
    406      1   1 -0.100000    28.074507841    11.101652473     8.351027051   0   0   0 # cp
    407      1   1 -0.100000    27.903770267     9.955799343     7.627513739   0   0   0 # cp
    408      1   1  0.000000    27.441449768     9.938340409     6.335039586   0   0   0 # cp
    409      1   2  0.100000     2.026735303     4.383619276     7.020049096   0   0   0 # h
    410      1   2  0.100000    29.363026419     1.545262480     8.719409944   0   0   0 # h
    411      1   2  0.100000    31.091318956     0.623947829    10.020480294  -1   0   0 # h
    412      1   2  0.100000     3.777349251     3.508549904     8.456509562   0   0   0 # h
    413      1   2  0.100000    28.151568087     4.570293834     8.777255191   0   0   0 # h
    414      1   2  0.100000    25.996247222     4.062481554     9.774055958   0   0   0 # h
    415      1   2  0.100000    25.436986736     0.969670191     6.912059361   0   0   0 # h
    416      1   2  0.100000    27.462321717     1.582011297     5.791867339   0   0   0 # h
    417      1   2  0.100000    30.511492826     5.908027700     7.432308414  -1   0   0 # h
    418      1   2  0.100000    29.528522688     8.005292383     7.043688640   0   0   0 # h
    419      1   2  0.100000    26.893257140     6.170072182     4.130473031   0   0   0 # h
    420      1   2  0.100000    27.940140603     4.119501636     4.547567711   0   0   0 # h
    421      1   2  0.100000    22.463471521     8.709778190     5.911139583   0   0   0 # h
    422      1   2  0.100000    24.537007719     9.353536551     4.844315621   0   0   0 # h
    423      1   2  0.100000    26.639195756     6.912512717     7.731205374   0   0   0 # h
    424      1   2  0.100000    24.617656871     6.231331629     8.686995114   0   0   0 # h
    425      1   2  0.100000    29.247051442     9.747651423     4.241865427   0   0   0 # h
    426      1   2  0.100000    29.916604950     9.537833884     1.970857427   0   0   0 # h
    427      1   2  0.100000    26.273227348     7.837293883     0.829891260   0   0   0 # h
    428      1   2  0.100000    25.472940801     8.037984467     3.229842227   0   0   0 # h
    429      1   2  0.100000    26.550353178    11.213707435     4.845748321   0   0   0 # h
    430      1   2  0.100000    26.740040127    13.242153323     6.141087873   0   0   0 # h
    431      1   2  0.100000    28.497846210    11.025463849     9.334754434   0   0   0 # h
    432      1   2  0.100000    28.121725597     9.055115852     8.147941879   0   0   0 # h
    433      1   1  0.000000    16.038875825    16.206019542     2.839073403   0   0   0 # cp
    434      1   1 -0.100000    14.886543904    16.656010579     2.247726631   0   0   0 # cp
    435      1   1 -0.100000    14.132616967    15.814098825     1.480515979   0   0   0 # cp
    436      1   1  0.000000    14.494483644    14.490196192     1.372705332   0   0   0 # cp
    437      1   1 -0.100000    15.545077864    14.037142576     2.130603436   0   0   0 # cp
    438      1   1 -0.100000    16.298147846    14.855267216     2.902470361   0   0   0 # cp
    439      1   2  0.100000    14.674648502    17.715343895     2.233757809   0   0   0 # h
    440      1   2  0.100000    13.350530265    16.262465449     0.880035747   0   0   0 # h
    441      1   2  0.100000    15.953068401    13.041909900     2.118067314   0   0   0 # h
    442      1   2  0.100000    17.182922580    14.444475946     3.379559338   0   0   0 # h
    443      1   1 -0.100000    15.844394283    13.234783525    16.746825966   0   0   0 # cp
    444      1   1  0.000000    14.543125718    13.641895153    16.883469693   0   0   0 # cp
    445      1   1 -0.100000    14.074619905    14.564894398    15.957050296   0   0   0 # cp
    446      1   1 -0.100000    14.832181877    14.934711160    14.881630136   0   0   0 # cp
    447      1   1  0.000000    16.055410766    14.361438482    14.674963215   0   0   0 # cp
    448      1   1 -0.100000    16.564172208    13.519443810    15.611590597   0   0   0 # cp
    449      1   3  0.000000    13.378362526    12.742593896    36.038842824   0   0  -1 # c
    450      1   1  0.000000    12.090746788    13.208529523    17.777653349   0   0   0 # cp
    451      1   1 -0.100000    11.647209780    12.495605932    16.687010757   0   0   0 # cp
    452      1   1 -0.100000    10.360318258    12.536485446    16.255230906   0   0   0 # cp
    453      1   1  0.000000     9.429647691    13.209785355    16.996294789   0   0   0 # cp
    454      1   1 -0.100000     9.521684334    13.455069997    36.044394535   0   0  -1 # cp
    455      1   1 -0.100000    11.404220245    14.292011640     0.609255517   0   0   0 # cp
    456      1   1 -0.100000    14.238659034    10.247844899    35.859934458   0   0  -1 # cp
    457      1   1 -0.100000    14.024884730     8.925057213    36.089882748   0   0  -1 # cp
    458      1   1  0.000000    13.498190042     9.376943607     1.008441452   0   0   0 # cp
    459      1   1 -0.100000    12.930824789    10.324357235     1.855883282   0   0   0 # cp
    460      1   1 -0.100000    13.219852843    11.650125523     1.699539935   0   0   0 # cp
    461      1   1  0.000000    14.047611049    12.065161144     0.672115214   0   0   0 # cp
    462      1   3  0.000000    12.788190723     7.963872281     0.715096202   0   0   0 # c
    463      1   1  0.000000     8.598736200     7.950051959    16.821326347   0   0   0 # cp
    464      1   1 -0.100000     8.837994752     6.908960461    17.708525592   0   0   0 # cp
    465      1   1 -0.100000    10.290861645     7.297067216     0.536546011   0   0   0 # cp
    466      1   1  0.000000    11.262745380     8.266918753     0.359249432   0   0   0 # cp
    467      1   1 -0.100000    10.661464478     8.939133599    17.483591750   0   0   0 # cp
    468      1   1 -0.100000     9.498504550     8.983571197    16.750049540   0   0   0 # cp
    469      1   1  0.000000    13.089047699     7.322811315     2.139378721   0   0   0 # cp
    470      1   1 -0.100000    14.287297425     6.714361639     2.382579483   0   0   0 # cp
    471      1   1 -0.100000    14.659579615     6.404456241     3.663950214   0   0   0 # cp
    472      1   1  0.000000    13.878700668     6.734901362     4.743489385   0   0   0 # cp
    473      1   1 -0.100000    12.638571118     7.275426475     4.515690144   0   0   0 # cp
    474      1   1 -0.100000    12.234132775     7.542661615     3.217127017   0   0   0 # cp
    475      1   1 -0.100000    12.900450626     5.327041072    17.346589848   0   0   0 # cp
    476      1   1 -0.100000    13.288485105     4.594659499    16.232486799   0   0   0 # cp
    477      1   1  0.000000    13.576057145     5.212356328    15.022571962   0   0   0 # cp
    478      1   1 -0.100000    13.536484667     6.606624104    14.992664358   0   0   0 # cp
    479      1   1 -0.100000    13.161774959     7.325008034    16.120557141   0   0   0 # cp
    480      1   1  0.000000    12.918724062     6.700020792    17.336740038   0   0   0 # cp
    481      1   2  0.100000    16.346725350    12.697308388    17.527289089   0   0   0 # h
    482      1   2  0.100000    13.113926421    15.021809983    16.049996684   0   0   0 # h
    483      1   2  0.100000    14.486272513    15.671653070    14.178532793   0   0   0 # h
    484      1   2  0.100000    17.581104884    13.129965284    15.506645350   0   0   0 # h
    485      1   2  0.100000    12.352010258    11.864345769    16.156732806   0   0   0 # h
    486      1   2  0.100000    10.049198170    11.929483813    15.410833562   0   0   0 # h
    487      1   2  0.100000     9.368843177    14.817335459     0.815027002   0   0   0 # h
    488      1   2  0.100000    11.660048263    14.828325341     1.517587082   0   0   0 # h
    489      1   2  0.100000    15.260111836    10.870632544    17.183262091   0   0   0 # h
    490      1   2  0.100000    14.895843764     8.633752697    17.606624831   0   0   0 # h
    491      1   2  0.100000    12.085078385    10.080428859     2.478033096   0   0   0 # h
    492      1   2  0.100000    12.651213633    12.363721678     2.296796593   0   0   0 # h
    493      1   2  0.100000     8.207798395     6.070788354    17.701003919   0   0   0 # h
    494      1   2  0.100000    10.484624382     6.459634575     1.172127384   0   0   0 # h
    495      1   2  0.100000    11.422355159     9.682360183    17.264388707   0   0   0 # h
    496      1   2  0.100000     9.315943049     9.809898865    16.074173490   0   0   0 # h
    497      1   2  0.100000    14.988898240     6.596204526     1.566119782   0   0   0 # h
    498      1   2  0.100000    15.674276829     5.975028263     3.810622839   0   0   0 # h
    499      1   2  0.100000    11.999307093     7.559183844     5.347372279   0   0   0 # h
    500      1   2  0.100000    11.327008560     8.067871031     3.059709146   0   0   0 # h
    501      1   2  0.100000    12.308903910     4.366270689    36.143788072   0   0  -1 # h
    502      1   2  0.100000    13.265685445     3.514312651    16.281019499   0   0   0 # h
    503      1   2  0.100000    13.730507235     7.134613150    14.084870055   0   0   0 # h
    504      1   2  0.100000    13.129303011     8.421948540    16.034416075   0   0   0 # h
    505      1   1  0.000000    18.918580499    16.337399513     1.492693926   0   0   0 # cp
    506      1   1 -0.100000    19.848626335    15.818809647     2.365028913   0   0   0 # cp
    507      1   1 -0.100000    20.583428799    14.744373871     1.993243359   0   0   0 # cp
    508      1   1  0.000000    20.409195821    14.144653800     0.731034986   0   0   0 # cp
    509      1   1 -0.100000    19.303952855    14.342702929    17.740582246   0   0   0 # cp
    510      1   1 -0.100000    18.280379351    15.003944398    36.028455751   0   0  -1 # cp
    511      1   2  0.100000    19.999447143    16.242952124     3.330489376   0   0   0 # h
    512      1   2  0.100000    21.257433886    14.310808201     2.747022452   0   0   0 # h
    513      1   2  0.100000    19.177802775    13.952808324    16.759541175   0   0   0 # h
    514      1   2  0.100000    17.901918177    15.856534917    17.415001256   0   0   0 # h
    515      1   1 -0.100000    18.866103737    11.701053114     1.265790122   0   0   0 # cp
    516      1   1  0.000000    20.218742268    11.922042713     1.558419022   0   0   0 # cp
    517      1   1 -0.100000    20.662366355    11.529749994     2.818836521   0   0   0 # cp
    518      1   1 -0.100000    19.826474135    10.791446276     3.650518655   0   0   0 # cp
    519      1   1  0.000000    18.531022187    10.524939036     3.270136904   0   0   0 # cp
    520      1   1 -0.100000    18.062154366    10.951214806     2.075623588   0   0   0 # cp
    521      1   3  0.000000    21.098186126    12.745706865     0.506101144   0   0   0 # c
    522      1   1  0.000000    22.658299837    12.905047129     0.763807990   0   0   0 # cp
    523      1   1 -0.100000    23.483142608    11.877981707     1.232838031   0   0   0 # cp
    524      1   1 -0.100000    24.837131198    12.018242960     1.328112556   0   0   0 # cp
    525      1   1  0.000000    25.418133551    13.203855465     0.887915595   0   0   0 # cp
    526      1   1 -0.100000    24.640859933    14.224137045     0.482282513   0   0   0 # cp
    527      1   1 -0.100000    23.292091288    14.083200592     0.398469584   0   0   0 # cp
    528      1   1 -0.100000    20.396674824    10.315126613    16.853562088   0   0   0 # cp
    529      1   1 -0.100000    20.898101465     9.489887173    15.922665504   0   0   0 # cp
    530      1   1  0.000000    22.015305460     9.855057205    15.195749530   0   0   0 # cp
    531      1   1 -0.100000    22.244170388    11.219954183    15.077193636   0   0   0 # cp
    532      1   1 -0.100000    21.578070646    12.126655652    15.902249535   0   0   0 # cp
    533      1   1  0.000000    20.822965485    11.643940794    16.960835473   0   0   0 # cp
    534      1   3  0.000000    23.018150353     8.713254682    14.710243443   0   0   0 # c
    535      1   1  0.000000    27.118647810     9.034123479    16.043191361   0   0   0 # cp
    536      1   1 -0.100000    26.822903301     8.296622316    14.921029376   0   0   0 # cp
    537      1   1 -0.100000    25.570372854     8.347669762    14.376961692   0   0   0 # cp
    538      1   1  0.000000    24.556844757     9.031807611    15.029556373   0   0   0 # cp
    539      1   1 -0.100000    24.896780535     9.801169693    16.133451437   0   0   0 # cp
    540      1   1 -0.100000    26.155957112     9.802338438    16.626658285   0   0   0 # cp
    541      1   1  0.000000    22.683675324     8.529177075    13.183343813   0   0   0 # cp
    542      1   1 -0.100000    21.626085421     7.727397360    12.761413772   0   0   0 # cp
    543      1   1 -0.100000    21.401325034     7.513499160    11.428107680   0   0   0 # cp
    544      1   1  0.000000    22.112282854     8.183044785    10.481093225   0   0   0 # cp
    545      1   1 -0.100000    23.050865748     9.130166696    10.902844178   0   0   0 # cp
    546      1   1 -0.100000    23.346890301     9.271062710    12.232926697   0   0   0 # cp
    547      1   1 -0.100000    23.066506492     6.066121805    15.009140403   0   0   0 # cp
    548      1   1 -0.100000    23.103588604     4.929802258    15.786917215   0   0   0 # cp
    549      1   1  0.000000    22.999365075     5.005376789    17.152100874   0   0   0 # cp
    550      1   1 -0.100000    22.797712591     6.221686569    17.742731296   0   0   0 # cp
    551      1   1 -0.100000    22.899829316     7.362254721    16.984116842   0   0   0 # cp
    552      1   1  0.000000    22.983993947     7.331522036    15.595472727   0   0   0 # cp
    553      1   2  0.100000    17.935088266    11.174279558    36.126953851   0   0  -1 # h
    554      1   2  0.100000    21.643811116    11.797965070     3.204769983   0   0   0 # h
    555      1   2  0.100000    20.164872222    10.532231059     4.639797749   0   0   0 # h
    556      1   2  0.100000    17.056019715    10.726514924     1.731954764   0   0   0 # h
    557      1   2  0.100000    23.047348251    10.916796860     1.493768451   0   0   0 # h
    558      1   2  0.100000    25.466572055    11.190297689     1.617696969   0   0   0 # h
    559      1   2  0.100000    24.518252092    14.322535099    35.951089971   0   0  -1 # h
    560      1   2  0.100000    22.449437437    14.484722070    17.839259433   0   0   0 # h
    561      1   2  0.100000    19.840597579     9.765284207    17.595342322   0   0   0 # h
    562      1   2  0.100000    20.621427517     8.469116048    15.972451817   0   0   0 # h
    563      1   2  0.100000    23.052322649    11.583089250    14.420121768   0   0   0 # h
    564      1   2  0.100000    21.937105286    13.141102772    15.861059420   0   0   0 # h
    565      1   2  0.100000    27.561886154     7.660902441    14.468296293   0   0   0 # h
    566      1   2  0.100000    25.287659105     7.611599781    13.605273854   0   0   0 # h
    567      1   2  0.100000    24.147808707    10.281231921    16.757571213   0   0   0 # h
    568      1   2  0.100000    26.371423974    10.319001267    17.554868557   0   0   0 # h
    569      1   2  0.100000    21.001225109     7.194607429    13.445886020   0   0   0 # h
    570      1   2  0.100000    20.610634455     6.823267735    11.168609960   0   0   0 # h
    571      1   2  0.100000    23.571313145     9.719284545    10.166257482   0   0   0 # h
    572      1   2  0.100000    24.134957624     9.919001400    12.529137345   0   0   0 # h
    573      1   2  0.100000    23.199079607     5.928138210    13.948405415   0   0   0 # h
    574      1   2  0.100000    23.269785950     3.970613649    15.304813789   0   0   0 # h
    575      1   2  0.100000    23.053195306     6.714724443     0.938418257   0   0   0 # h
    576      1   2  0.100000    22.899810059     8.279378471    17.545735097   0   0   0 # h
    577      1   4 -0.200000    17.172969337    17.139820032     3.228051352   0   0   0 # c2
    578      1   4 -0.200000    18.036932518    17.487496141     1.981423587   0   0   0 # c2
    579      1   2  0.100000    16.719922308    18.046161770     3.674158199   0   0   0 # h
    580      1   2  0.100000    17.815789660    16.724899499     4.022662384   0   0   0 # h
    581      1   2  0.100000    18.611973216    18.357112486     2.260262753   0   0   0 # h
    582      1   2  0.100000    17.373544067    17.832930519     1.181619019   0   0   0 # h
    583      1   4 -0.200000    21.632745603     8.131760195     9.010785231   0   0   0 # c2
    584      1   4 -0.200000    22.115233582     7.000971904     8.104960890   0   0   0 # c2
    585      1   2  0.100000    20.556803822     8.060685888     9.038722873   0   0   0 # h
    586      1   2  0.100000    21.827905300     9.126185220     8.575960893   0   0   0 # h
    587      1   2  0.100000    22.287148099     6.091713570     8.678040742   0   0   0 # h
    588      1   2  0.100000    21.307767840     6.752363183     7.368016018   0   0   0 # h
    589      1   4 -0.200000    28.451545708     8.951123946    16.732140795   0   0   0 # c2
    590      1   4 -0.200000    28.475039958     7.870850214    17.846781106   0   0   0 # c2
    591      1   2  0.100000    29.219363911     8.693342559    15.977108090   0   0   0 # h
    592      1   2  0.100000    28.769490507     9.915265813    17.211916083   0   0   0 # h
    593      1   2  0.100000    28.064601323     6.946452054    17.457265895   0   0   0 # h
    594      1   2  0.100000    29.249657990     7.208537547    35.933002139   0   0  -1 # h
    595      1   4 -0.200000     7.451116829     7.015404752    14.750896295   0   0   0 # c2
    596      1   4 -0.200000     7.361351791     7.959042635    15.935738889   0   0   0 # c2
    597      1   2  0.100000     6.429935407     6.521986797    14.700214546   0   0   0 # h
    598      1   2  0.100000     8.101887195     6.200870537    14.999290593   0   0   0 # h
    599      1   2  0.100000     6.476062493     7.689107547    16.535144596   0   0   0 # h
    600      1   2  0.100000     7.119813547     8.968712023    15.591353715   0   0   0 # h
    601      1   4 -0.200000    14.596825725     6.642045787     6.136073425   0   0   0 # c2
    602      1   4 -0.200000    13.869461390     5.958358744     7.313394345   0   0   0 # c2
    603      1   2  0.100000    15.541569137     6.085526373     5.990117150   0   0   0 # h
    604      1   2  0.100000    14.935726852     7.655970161     6.450371906   0   0   0 # h
    605      1   2  0.100000    13.670908573     4.910303288     7.009662023   0   0   0 # h
    606      1   2  0.100000    14.553870528     5.853313128     8.160119826   0   0   0 # h
    607      1   4 -0.200000     4.348815845    20.039310383     4.828555925   0   0   0 # c2
    608      1   4 -0.200000     3.055840079     0.073047115     3.612193940   0   0   0 # c2
    609      1   2  0.100000     4.861408619    19.102956439     4.575505353   0   0   0 # h
    610      1   2  0.100000     3.727830510    19.787992425     5.715396996   0   0   0 # h
    611      1   2  0.100000     3.125605625    19.606913473     3.069379868   0   0   0 # h
    612      1   2  0.100000     3.712812180     0.611133864     2.858056673   0   0   0 # h
    613      1   4 -0.200000    24.864218488     4.181523148     0.955610653   0   0   0 # c2
    614      1   4 -0.200000    22.960465866     3.366898026    35.958432557   0   0  -1 # c2
    615      1   2  0.100000    24.761472771     3.460407762     1.785501913   0   0   0 # h
    616      1   2  0.100000    25.026311939     5.119397654     1.493947538   0   0   0 # h
    617      1   2  0.100000    22.650781227     4.104612511     0.839741070   0   0   0 # h
    618      1   2  0.100000    23.228316562     2.830541932    17.470697454   0   0   0 # h
    619      1   4 -0.200000    27.195721047    13.144012461    17.226063992   0   0   0 # c2
    620      1   4 -0.200000    26.893971571    13.416387778     0.772404188   0   0   0 # c2
    621      1   2  0.100000    26.764063280    12.297683301    16.657282239   0   0   0 # h
    622      1   2  0.100000    28.261653422    12.915102534    17.255971597   0   0   0 # h
    623      1   2  0.100000    27.145250061    14.316284381     1.381301530   0   0   0 # h
    624      1   2  0.100000    27.462690804    12.630588657     1.338320541   0   0   0 # h
    625      1   4 -0.200000     4.613626123     2.209196539    17.654083006   0   0   0 # c2
    626      1   4 -0.200000     5.157861991     3.663973844    17.602863995   0   0   0 # c2
    627      1   2  0.100000     4.886959499     2.203697633     0.764703427   0   0   0 # h
    628      1   2  0.100000     5.275346012     1.536692875    17.036589466   0   0   0 # h
    629      1   2  0.100000     5.841216423     3.776001469    16.754347639   0   0   0 # h
    630      1   2  0.100000     4.359768809     4.393968472    17.425925590   0   0   0 # h
    631      1   4 -0.200000    13.933825001     4.396020309    13.770750661   0   0   0 # c2
    632      1   4 -0.200000    13.267697585     4.824770027    12.452487915   0   0   0 # c2
    633      1   2  0.100000    15.027528048     4.391781578    13.698578417   0   0   0 # h
    634      1   2  0.100000    13.653511684     3.332978922    13.943928229   0   0   0 # h
    635      1   2  0.100000    13.826031644     4.381152202    11.630834678   0   0   0 # h
    636      1   2  0.100000    13.325038877     5.917730408    12.283071184   0   0   0 # h
    637      1   4 -0.200000     7.643144060    14.321698687    15.452202764   0   0   0 # c2
    638      1   4 -0.200000     7.958941317    13.257377037    16.530488322   0   0   0 # c2
    639      1   2  0.100000     6.571764965    14.432437026    15.246252192   0   0   0 # h
    640      1   2  0.100000     8.017514920    13.920605558    14.496233936   0   0   0 # h
    641      1   2  0.100000     7.646902029    12.271304516    16.107125582   0   0   0 # h
    642      1   2  0.100000     7.292478315    13.446672640    17.403897834   0   0   0 # h
    643      1   4 -0.200000     4.344477802     0.252771481     9.287475347   0   0   0 # c2
    644      1   4 -0.200000     3.695518785     1.416185783    10.080832766   0   0   0 # c2
    645      1   2  0.100000     4.380159036     0.521842056     8.190564693   0   0   0 # h
    646      1   2  0.100000     4.146471726    19.737142877     9.336008046   0   0   0 # h
    647      1   2  0.100000     4.417915938     2.224258602    10.267620980   0   0   0 # h
    648      1   2  0.100000     3.386395019     1.067679719    11.073872697   0   0   0 # h
    649      1   4 -0.200000     3.490822717     6.127425465    12.464665862   0   0   0 # c2
    650      1   4 -0.200000     2.187986703     5.832030334    11.720736579   0   0   0 # c2
    651      1   2  0.100000     3.375152450     6.498559761    13.497463207   0   0   0 # h
    652      1   2  0.100000     3.906287219     6.988864243    11.885138862   0   0   0 # h
    653      1   2  0.100000     2.371717435     5.277087158    10.805957866   0   0   0 # h
    654      1   2  0.100000     1.742064507     6.804751815    11.411452547   0   0   0 # h
    655      1   4 -0.200000     8.419711488    14.766258271     8.678578004   0   0   0 # c2
    656      1   4 -0.200000     7.537835076    13.898431738     7.735682561   0   0   0 # c2
    657      1   2  0.100000     8.019913717    14.673584437     9.695257478   0   0   0 # h
    658      1   2  0.100000     8.350762987    15.833680375     8.422482945   0   0   0 # h
    659      1   2  0.100000     7.718473959    14.179098704     6.684260120   0   0   0 # h
    660      1   2  0.100000     6.479309823    14.137566629     7.924082562   0   0   0 # h
    661      1   4 -0.200000    14.573329346     2.561628898     5.282900795   0   0   0 # c2
    662      1   4 -0.200000    13.359457568     2.689656274     4.334632728   0   0   0 # c2
    663      1   2  0.100000    15.482153484     2.435275571     4.678122464   0   0   0 # h
    664      1   2  0.100000    14.765697312     3.581702688     5.718799658   0   0   0 # h
    665      1   2  0.100000    13.110982113     1.741698790     3.852350216   0   0   0 # h
    666      1   2  0.100000    13.706922378     3.305755246     3.491309909   0   0   0 # h
    667      1   4 -0.200000    16.086925642     9.936386237     4.201570750   0   0   0 # c2
    668      1   4 -0.200000    17.617223892     9.641400036     4.149993564   0   0   0 # c2
    669      1   2  0.100000    15.641916760    10.090064679     3.186144888   0   0   0 # h
    670      1   2  0.100000    15.598582292     9.017995502     4.518197368   0   0   0 # h
    671      1   2  0.100000    17.751825944     8.592953523     3.827994322   0   0   0 # h
    672      1   2  0.100000    18.009896553     9.592296642     5.171508399   0   0   0 # h
    673      1   4 -0.200000    16.049607965    19.711856448    16.197385658   0   0   0 # c2
    674      1   4 -0.200000    16.298274831    18.927527591    14.912254091   0   0   0 # c2
    675      1   2  0.100000    15.887506689     0.383851524    15.955796683   0   0   0 # h
    676      1   2  0.100000    16.770725269    19.400090931    16.980176918   0   0   0 # h
    677      1   2  0.100000    17.414463741    18.806333774    14.804622531   0   0   0 # h
    678      1   2  0.100000    15.971322530    17.894668742    15.051584130   0   0   0 # h
    679      1   4 -0.200000     9.822845229    19.586397389     6.193918672   0   0   0 # c2
    680      1   4 -0.200000    10.920302826    19.681118957     5.098082543   0   0   0 # c2
    681      1   2  0.100000     9.130361226    18.744187700     5.930301940   0   0   0 # h
    682      1   2  0.100000     8.788859407     0.081490089     6.229557075   0   0   0 # h
    683      1   2  0.100000    11.126951985     0.159017962     5.319792811   0   0   0 # h
    684      1   2  0.100000    11.638127867    18.879940469     5.202490529   0   0   0 # h
    685      1   4 -0.200000    26.896827382    13.565353474     9.959411473   0   0   0 # c2
    686      1   4 -0.200000    27.749473843    13.579047146     8.652789411   0   0   0 # c2
    687      1   2  0.100000    27.227637018    14.357089961    10.646032770   0   0   0 # h
    688      1   2  0.100000    27.015979030    12.647454582    10.552907294   0   0   0 # h
    689      1   2  0.100000    28.837688689    13.701207712     8.894199298   0   0   0 # h
    690      1   2  0.100000    27.524217338    14.447982507     7.996792068   0   0   0 # h
    691      1   4 -0.200000    24.174584954     2.224136882     9.010785231   0   0   0 # c2
    692      1   4 -0.200000    22.930855291     2.263560103     8.089380282   0   0   0 # c2
    693      1   2  0.100000    24.327754260     1.261606995     9.539809569   0   0   0 # h
    694      1   2  0.100000    23.967543210     3.004385000     9.805038088   0   0   0 # h
    695      1   2  0.100000    22.921091324     3.193478194     7.470633129   0   0   0 # h
    696      1   2  0.100000    21.991038807     2.334960941     8.722275343   0   0   0 # h
    697      1   4 -0.200000    16.832155488    14.483323339    13.368162065   0   0   0 # c2
    698      1   4 -0.200000    17.561746941    15.792300569    13.161495144   0   0   0 # c2
    699      1   2  0.100000    17.583107025    13.661681304    13.360819480   0   0   0 # h
    700      1   2  0.100000    16.194885966    14.195105152    12.508900463   0   0   0 # h
    701      1   2  0.100000    16.799083226    16.519693904    12.903430123   0   0   0 # h
    702      1   2  0.100000    18.026912036    16.114479931    14.122657508   0   0   0 # h
    703      1   4 -0.200000    28.570724345    17.812993431     7.313752520   0   0   0 # c2
    704      1   4 -0.200000    28.397670717    18.848035610     8.447913364   0   0   0 # c2
    705      1   2  0.100000    28.930201935    16.848600019     7.747502333   0   0   0 # h
    706      1   2  0.100000    29.358778894    18.105214990     6.598835405   0   0   0 # h
    707      1   2  0.100000    29.370463027    19.273765050     8.705441122   0   0   0 # h
    708      1   2  0.100000    27.888391716    19.717338192     8.056607278   0   0   0 # h
    709      1   4 -0.200000    21.167069632    17.735631420    17.410165894   0   0   0 # c2
    710      1   4 -0.200000    21.373926631    18.967789949    16.505236991   0   0   0 # c2
    711      1   2  0.100000    21.466915432    16.783549952    16.920898971   0   0   0 # h
    712      1   2  0.100000    20.071119415    17.612077635    17.517797454   0   0   0 # h
    713      1   2  0.100000    20.552491573    19.052303576    15.751278811   0   0   0 # h
    714      1   2  0.100000    21.304928435    19.867819259    17.134729391   0   0   0 # h
    715      1   4 -0.200000    17.032477214     8.991193024    10.796108056   0   0   0 # c2
    716      1   4 -0.200000    17.988171691     8.963409701     9.552524778   0   0   0 # c2
    717      1   2  0.100000    17.669627064     9.195351807    11.688679925   0   0   0 # h
    718      1   2  0.100000    16.569450360     8.004837464    10.937049882   0   0   0 # h
    719      1   2  0.100000    17.362638620     8.794586925     8.615181045   0   0   0 # h
    720      1   2  0.100000    18.615475427     8.080348079     9.631860520   0   0   0 # h
    721      1   1  0.000000    27.684291131    37.973418068     6.539020195   0   0   0 # cp
    722      1   1 -0.100000    27.406845826    38.598941844     5.352386727   0   0   0 # cp
    723      1   1 -0.100000    26.175835364    38.459699098     4.757637294   0   0   0 # cp
    724      1   1  0.000000    25.147414693    37.763200272     5.424558971   0   0   0 # cp
    725      1   1 -0.100000    25.498448025    37.089398635     6.606894340   0   0   0 # cp
    726      1   1 -0.100000    26.771066570    37.179774039     7.126247956   0   0   0 # cp
    727      1   2  0.100000    28.090373655    39.299003773     4.926874937   0   0   0 # h
    728      1   2  0.100000    25.988676842    39.046488050     3.884406870   0   0   0 # h
    729      1   2  0.100000    24.764636758    36.500957690     7.130366967   0   0   0 # h
    730      1   2  0.100000    26.955287131    36.745347939     8.101020966   0   0   0 # h
    731      1   1 -0.100000    23.966691949    37.690929396     2.480182146   0   0   0 # cp
    732      1   1  0.000000    23.234288690    38.181026674     3.549871506   0   0   0 # cp
    733      1   1 -0.100000    22.097507953    38.875061085     3.251690896   0   0   0 # cp
    734      1   1 -0.100000    21.739381663    39.157405242     1.970499253   0   0   0 # cp
    735      1   1  0.000000    22.466801671    38.631464365     0.923553998   0   0   0 # cp
    736      1   1 -0.100000    23.609180382    37.920888393     1.186991643   0   0   0 # cp
    737      1   3  0.000000    23.614490857    38.032494718     5.080531973   0   0   0 # c
    738      1   1  0.000000    23.532239849    39.445148171     5.847563537   0   0   0 # cp
    739      1   1 -0.100000    23.345573875    39.462542239     7.221701569   0   0   0 # cp
    740      1   1 -0.100000    22.972686279    20.241947486     7.907427429   0   0   0 # cp
    741      1   1  0.000000    23.227506654    21.425287873     7.240505751   0   0   0 # cp
    742      1   1 -0.100000    23.384297755    21.412991772     5.901647948   0   0   0 # cp
    743      1   1 -0.100000    22.906545034    -0.169734395     5.192998894   0   1   0 # cp
    744      1   1 -0.100000    22.930149744    35.590528321     5.571410683   0   0   0 # cp
    745      1   1 -0.100000    22.395404736    34.720052137     6.495143769   0   0   0 # cp
    746      1   1  0.000000    21.542357291    35.189613427     7.508778757   0   0   0 # cp
    747      1   1 -0.100000    20.975007162    36.451059160     7.274532367   0   0   0 # cp
    748      1   1 -0.100000    21.410813386    37.256671316     6.269851752   0   0   0 # cp
    749      1   1  0.000000    22.585034674    36.919473593     5.611705360   0   0   0 # cp
    750      1   3  0.000000    21.511020670    34.397753330     8.922136941   0   0   0 # c
    751      1   1  0.000000    19.360972517    30.590300135     9.329023636   0   0   0 # cp
    752      1   1 -0.100000    20.140266961    31.058269103    10.375968890   0   0   0 # cp
    753      1   1 -0.100000    20.886771467    32.215104120    10.216043794   0   0   0 # cp
    754      1   1  0.000000    20.805302529    32.948644662     9.010427056   0   0   0 # cp
    755      1   1 -0.100000    20.063270939    32.414275440     7.992314882   0   0   0 # cp
    756      1   1 -0.100000    19.346857180    31.247958843     8.156179902   0   0   0 # cp
    757      1   1  0.000000    20.660161047    35.158021997    10.004541511   0   0   0 # cp
    758      1   1 -0.100000    21.137555829    35.418687540    11.284300455   0   0   0 # cp
    759      1   1 -0.100000    20.331006931    35.883841981    12.276803123   0   0   0 # cp
    760      1   1  0.000000    18.991862484    36.156095920    12.016051790   0   0   0 # cp
    761      1   1 -0.100000    18.541618501    36.085476520    10.727338474   0   0   0 # cp
    762      1   1 -0.100000    19.329556563    35.477623907     9.779249494   0   0   0 # cp
    763      1   1 -0.100000    23.793099771    33.132205662     8.964401580   0   0   0 # cp
    764      1   1 -0.100000    25.122669132    33.060629124     9.215482190   0   0   0 # cp
    765      1   1  0.000000    25.835698060    34.125488748     9.691675729   0   0   0 # cp
    766      1   1 -0.100000    25.185958040    35.307919074     9.949024400   0   0   0 # cp
    767      1   1 -0.100000    23.853747789    35.373945892     9.725881433   0   0   0 # cp
    768      1   1  0.000000    23.085784978    34.290001637     9.280311848   0   0   0 # cp
    769      1   2  0.100000    24.885242406    37.133913284     2.653538801   0   0   0 # h
    770      1   2  0.100000    21.459171905    39.204980738     4.064568848   0   0   0 # h
    771      1   2  0.100000    20.807175461    39.687051982     1.789083662   0   0   0 # h
    772      1   2  0.100000    23.652977436    36.742602228    36.168323053   0   0  -1 # h
    773      1   2  0.100000    23.247940468    38.561170013     7.789229709   0   0   0 # h
    774      1   2  0.100000    22.485030743    -0.229349804     8.988399299   0   1   0 # h
    775      1   2  0.100000    23.532275935    22.347176259     5.406471138   0   0   0 # h
    776      1   2  0.100000    23.073468585    -0.106157346     4.119727784   0   1   0 # h
    777      1   2  0.100000    23.739638012    35.292473077     4.906638055   0   0   0 # h
    778      1   2  0.100000    22.824291755    33.716007634     6.519141488   0   0   0 # h
    779      1   2  0.100000    20.266958481    36.876876701     7.940200433   0   0   0 # h
    780      1   2  0.100000    21.008990389    38.263919277     6.248540345   0   0   0 # h
    781      1   2  0.100000    20.242956146    30.511987161    11.306686386   0   0   0 # h
    782      1   2  0.100000    21.457601702    32.577787259    11.059545700   0   0   0 # h
    783      1   2  0.100000    20.069296312    32.895667306     7.016825522   0   0   0 # h
    784      1   2  0.100000    18.746303454    30.871693890     7.352435410   0   0   0 # h
    785      1   2  0.100000    22.137853985    35.134030153    11.604329734   0   0   0 # h
    786      1   2  0.100000    20.750940598    35.994416537    13.261067768   0   0   0 # h
    787      1   2  0.100000    17.526467201    36.283778037    10.477869651   0   0   0 # h
    788      1   2  0.100000    18.885299202    35.291747039     8.811639982   0   0   0 # h
    789      1   2  0.100000    23.350330113    32.293252208     8.464568497   0   0   0 # h
    790      1   2  0.100000    25.615792304    32.106442718     9.053228957   0   0   0 # h
    791      1   2  0.100000    25.721626329    36.169839647    10.277828965   0   0   0 # h
    792      1   2  0.100000    23.375838403    36.322926138     9.848735426   0   0   0 # h
    793      1   1  0.000000    10.902640510    39.781078228     7.550506134   0   0   0 # cp
    794      1   1 -0.100000    10.921554157    20.406914761     8.344221728   0   0   0 # cp
    795      1   1 -0.100000    11.910222365    20.199053603     9.275834662   0   0   0 # cp
    796      1   1  0.000000    13.020080400    39.411087981     9.290698921   0   0   0 # cp
    797      1   1 -0.100000    12.370389763    38.341107916     8.692546825   0   0   0 # cp
    798      1   1 -0.100000    11.333207521    38.511687227     7.819137314   0   0   0 # cp
    799      1   2  0.100000    10.607463769    21.408490084     8.137017544   0   0   0 # h
    800      1   2  0.100000    12.354586361    21.105104899     9.681825919   0   0   0 # h
    801      1   2  0.100000    12.813699808    37.352758421     8.638641502   0   0   0 # h
    802      1   2  0.100000    10.978895286    37.712226282     7.166184458   0   0   0 # h
    803      1   1 -0.100000    14.254746981    40.045486216    12.070136201   0   0   0 # cp
    804      1   1  0.000000    15.108850410    39.878621709    10.978598171   0   0   0 # cp
    805      1   1 -0.100000    16.490148228    39.834194754    11.203352926   0   0   0 # cp
    806      1   1 -0.100000    16.980921604    39.786250572    12.473082972   0   0   0 # cp
    807      1   1  0.000000    16.130063919    39.794175916    13.552622143   0   0   0 # cp
    808      1   1 -0.100000    14.766833035    40.011618415    13.340224423   0   0   0 # cp
    809      1   3  0.000000    14.598760996    39.430884499     9.562553675   0   0   0 # c
    810      1   1  0.000000    14.275563471    -0.404198142     8.397410702   0   1   0 # cp
    811      1   1 -0.100000    14.902914018    40.101300946     7.035629704   0   0   0 # cp
    812      1   1 -0.100000    14.675422199    20.602372393     6.043306124   0   0   0 # cp
    813      1   1  0.000000    14.971323243    21.906380784     6.374259738   0   0   0 # cp
    814      1   1 -0.100000    15.196345983    22.253540692     7.691447960   0   0   0 # cp
    815      1   1 -0.100000    15.049582465    21.327015030     8.690397776   0   0   0 # cp
    816      1   1 -0.100000    14.618941869    37.006258377    10.413219080   0   0   0 # cp
    817      1   1 -0.100000    14.669335522    35.668773335    10.222490942   0   0   0 # cp
    818      1   1  0.000000    15.084142830    35.139492292     9.003442645   0   0   0 # cp
    819      1   1 -0.100000    15.741343646    35.987663449     8.117138837   0   0   0 # cp
    820      1   1 -0.100000    15.783500654    37.358322869     8.390963554   0   0   0 # cp
    821      1   1  0.000000    15.117936143    37.890048662     9.487516032   0   0   0 # cp
    822      1   3  0.000000    14.563962249    33.686408184     8.561275722   0   0   0 # c
    823      1   1  0.000000    16.380137864    30.501746622    10.764767752   0   0   0 # cp
    824      1   1 -0.100000    15.193995911    30.272492713    10.160884858   0   0   0 # cp
    825      1   1 -0.100000    14.504586608    31.295361882     9.591565843   0   0   0 # cp
    826      1   1  0.000000    15.022332281    32.583882798     9.597117554   0   0   0 # cp
    827      1   1 -0.100000    16.141009084    32.789619518    10.378117939   0   0   0 # cp
    828      1   1 -0.100000    16.754706250    31.789951473    11.038055206   0   0   0 # cp
    829      1   1  0.000000    15.066279025    33.019337283     7.210956321   0   0   0 # cp
    830      1   1 -0.100000    14.206999433    32.204494330     6.473474187   0   0   0 # cp
    831      1   1 -0.100000    14.671130485    31.446403040     5.437811443   0   0   0 # cp
    832      1   1  0.000000    16.002556894    31.446053779     5.128527410   0   0   0 # cp
    833      1   1 -0.100000    16.838901692    32.294896128     5.799747187   0   0   0 # cp
    834      1   1 -0.100000    16.381721028    33.094221725     6.809084075   0   0   0 # cp
    835      1   1 -0.100000    12.191779263    33.628058406     9.664275349   0   0   0 # cp
    836      1   1 -0.100000    10.885524450    34.057822536     9.704749114   0   0   0 # cp
    837      1   1  0.000000    10.317662057    34.753074728     8.644372300   0   0   0 # cp
    838      1   1 -0.100000    11.108082506    35.043828332     7.554266970   0   0   0 # cp
    839      1   1 -0.100000    12.422139036    34.626915315     7.531701951   0   0   0 # cp
    840      1   1  0.000000    12.963813297    33.928868429     8.571841882   0   0   0 # cp
    841      1   2  0.100000    13.190340215    40.075846236    11.949789433   0   0   0 # h
    842      1   2  0.100000    17.171676876    39.770756295    10.377580677   0   0   0 # h
    843      1   2  0.100000    18.041642866    39.617210214    12.570506547   0   0   0 # h
    844      1   2  0.100000    14.036834627    39.973264773    14.154355987   0   0   0 # h
    845      1   2  0.100000    14.541743719    39.135175272     6.728673809   0   0   0 # h
    846      1   2  0.100000    14.125206879    -0.126129139     5.003524368   0   1   0 # h
    847      1   2  0.100000    15.339498379    23.290186689     7.967958988   0   0   0 # h
    848      1   2  0.100000    15.200202431    21.712455628     9.696152916   0   0   0 # h
    849      1   2  0.100000    14.108456680    37.355272109    11.300239238   0   0   0 # h
    850      1   2  0.100000    14.236149236    34.996962911    10.977523647   0   0   0 # h
    851      1   2  0.100000    16.049498136    35.695512040     7.137530465   0   0   0 # h
    852      1   2  0.100000    16.261569693    37.985966646     7.647929708   0   0   0 # h
    853      1   2  0.100000    14.829681537    29.278490160     9.964067746   0   0   0 # h
    854      1   2  0.100000    13.619765709    31.079047700     8.966729717   0   0   0 # h
    855      1   2  0.100000    16.664345160    33.746996273    10.420919841   0   0   0 # h
    856      1   2  0.100000    17.719102133    32.004879417    11.485773840   0   0   0 # h
    857      1   2  0.100000    13.158791553    32.100140261     6.747119816   0   0   0 # h
    858      1   2  0.100000    13.943631804    30.817104124     4.937262010   0   0   0 # h
    859      1   2  0.100000    17.895249103    32.275473728     5.555650987   0   0   0 # h
    860      1   2  0.100000    17.102378899    33.617071766     7.419055943   0   0   0 # h
    861      1   2  0.100000    12.558526407    33.102178638    10.525327826   0   0   0 # h
    862      1   2  0.100000    10.321765694    33.845268257    10.574935051   0   0   0 # h
    863      1   2  0.100000    10.668970023    35.599604707     6.750522478   0   0   0 # h
    864      1   2  0.100000    13.019702955    34.938128635     6.684976470   0   0   0 # h
    865      1   1  0.000000    14.208564447    -0.839797111    16.749512278   0   1   0 # cp
    866      1   1 -0.100000    14.525295473    38.755290213    17.088345740   0   0   0 # cp
    867      1   1 -0.100000    13.168407802    38.627437855    17.319189468   0   0   0 # cp
    868      1   1  0.000000    12.324374285    39.729757833    17.186127490   0   0   0 # cp
    869      1   1 -0.100000    12.522907168    20.559674589    16.991459428   0   0   0 # cp
    870      1   1 -0.100000    13.843204880    20.672035470    16.715843837   0   0   0 # cp
    871      1   2  0.100000    15.125275769    37.852809936    17.081182242   0   0   0 # h
    872      1   2  0.100000    12.756334189    37.636400411    17.442043461   0   0   0 # h
    873      1   2  0.100000    11.910512009    21.436325721    17.029605055   0   0   0 # h
    874      1   2  0.100000    14.220096035    21.662884111    16.495924444   0   0   0 # h
    875      1   1 -0.100000    10.445607519    20.928441249     1.613936132   0   0   0 # cp
    876      1   1  0.000000    10.726038128    40.151628357     0.887020158   0   0   0 # cp
    877      1   1 -0.100000    10.570235149    38.986948259     1.646709136   0   0   0 # cp
    878      1   1 -0.100000    10.622171306    38.966121142     3.005445647   0   0   0 # cp
    879      1   1  0.000000    10.928248298    40.128223009     3.662338427   0   0   0 # cp
    880      1   1 -0.100000    10.582921498    20.880328437     2.952256673   0   0   0 # cp
    881      1   3  0.000000    10.719584716    39.644414764    17.239495551   0   0   0 # c
    882      1   1  0.000000     9.956971814    38.360418938    16.627732809   0   0   0 # cp
    883      1   1 -0.100000    10.549594996    37.439067013    15.774381093   0   0   0 # cp
    884      1   1 -0.100000     9.857720197    36.393742239    15.256997439   0   0   0 # cp
    885      1   1  0.000000     8.611292089    36.113404705    15.724594781   0   0   0 # cp
    886      1   1 -0.100000     7.949932478    37.056334276    16.484104672   0   0   0 # cp
    887      1   1 -0.100000     8.602750802    38.177380256    16.905497450   0   0   0 # cp
    888      1   1 -0.100000     8.953321855    21.344896232    16.371458663   0   0   0 # cp
    889      1   1 -0.100000     8.476371411    22.119841157    15.307500101   0   0   0 # cp
    890      1   1  0.000000     8.902111590    21.885233146    14.022010359   0   0   0 # cp
    891      1   1 -0.100000     9.781364676    20.838708042    13.810328989   0   0   0 # cp
    892      1   1 -0.100000    10.240787208    20.089742420    14.836858273   0   0   0 # cp
    893      1   1  0.000000     9.805390660    20.272967941    16.154941932   0   0   0 # cp
    894      1   3  0.000000     8.366660100    22.681597900    12.704463962   0   0   0 # c
    895      1   1  0.000000     4.957568694    25.420172186    12.511049512   0   0   0 # cp
    896      1   1 -0.100000     5.886287336    25.328481795    11.513532395   0   0   0 # cp
    897      1   1 -0.100000     6.960712813    24.507476483    11.671666617   0   0   0 # cp
    898      1   1  0.000000     7.093954572    23.635971153    12.744758639   0   0   0 # cp
    899      1   1 -0.100000     6.025348821    23.584280256    13.640733170   0   0   0 # cp
    900      1   1 -0.100000     5.039496283    24.560089851    13.575724424   0   0   0 # cp
    901      1   1  0.000000     7.928658638    21.636661718    11.574422130   0   0   0 # cp
    902      1   1 -0.100000     8.052226212    21.908260891    10.193657862   0   0   0 # cp
    903      1   1 -0.100000     7.180729597    21.336508439     9.281923635   0   0   0 # cp
    904      1   1  0.000000     6.200162835    20.477334546     9.764206148   0   0   0 # cp
    905      1   1 -0.100000     5.865041244    -0.434340259    11.050054065   0   1   0 # cp
    906      1   1 -0.100000     7.100539061    20.608732802    11.940297797   0   0   0 # cp
    907      1   1 -0.100000     9.970975241    24.671894535    13.087352938   0   0   0 # cp
    908      1   1 -0.100000    11.207261503    25.265710608    13.095590961   0   0   0 # cp
    909      1   1  0.000000    12.249155802    24.706220723    12.384792857   0   0   0 # cp
    910      1   1 -0.100000    12.015895708    23.576206035    11.664861294   0   0   0 # cp
    911      1   1 -0.100000    10.794153026    22.974157657    11.677039241   0   0   0 # cp
    912      1   1  0.000000     9.735542730    23.485656206    12.415058637   0   0   0 # cp
    913      1   2  0.100000    10.680601561    21.850731923     1.129862745   0   0   0 # h
    914      1   2  0.100000    10.469870936    38.047398265     1.136488981   0   0   0 # h
    915      1   2  0.100000    10.488198879    38.038196305     3.556139567   0   0   0 # h
    916      1   2  0.100000    10.869173115    21.784568217     3.479848312   0   0   0 # h
    917      1   2  0.100000    11.577986418    37.517114819    15.464559798   0   0   0 # h
    918      1   2  0.100000    10.391912053    35.664216135    14.651323671   0   0   0 # h
    919      1   2  0.100000     6.944550487    36.829689997    16.819893647   0   0   0 # h
    920      1   2  0.100000     8.065727737    38.911122362    17.505440420   0   0   0 # h
    921      1   2  0.100000     8.525282893    21.503420412    17.330292890   0   0   0 # h
    922      1   2  0.100000     7.896080701    22.988005123    15.534762080   0   0   0 # h
    923      1   2  0.100000    10.015267900    20.550552591    12.799380313   0   0   0 # h
    924      1   2  0.100000    11.362947919    39.740964455    14.592762074   0   0   0 # h
    925      1   2  0.100000     5.768343902    25.871647360    10.593918321   0   0   0 # h
    926      1   2  0.100000     7.710373917    24.489315277    10.891382581   0   0   0 # h
    927      1   2  0.100000     6.010966041    22.840453633    14.437851426   0   0   0 # h
    928      1   2  0.100000     4.222783465    24.593812080    14.301386786   0   0   0 # h
    929      1   2  0.100000     8.645101045    22.753132739     9.878463944   0   0   0 # h
    930      1   2  0.100000     7.138828434    21.716616306     8.299270777   0   0   0 # h
    931      1   2  0.100000     5.924916640    39.756589591    11.476640380   0   0   0 # h
    932      1   2  0.100000     6.975628980    20.365846423    12.973453318   0   0   0 # h
    933      1   2  0.100000     9.217197816    25.046401516    13.747469292   0   0   0 # h
    934      1   2  0.100000    11.341664134    26.151348068    13.685684121   0   0   0 # h
    935      1   2  0.100000    12.815849530    23.122874241    11.102526689   0   0   0 # h
    936      1   2  0.100000    10.742196939    21.996656063    11.192428591   0   0   0 # h
    937      1   1  0.000000    23.124350132    39.257342690    15.751636986   0   0   0 # cp
    938      1   1 -0.100000    23.211527110    38.503407646    14.616401617   0   0   0 # cp
    939      1   1 -0.100000    24.413074035    38.234723455    14.031501994   0   0   0 # cp
    940      1   1  0.000000    25.575802678    38.821210297    14.520948005   0   0   0 # cp
    941      1   1 -0.100000    25.494159246    39.572261778    15.683583754   0   0   0 # cp
    942      1   1 -0.100000    24.280627772    39.817933650    16.274930526   0   0   0 # cp
    943      1   2  0.100000    22.347312661    38.079104113    14.174951044   0   0   0 # h
    944      1   2  0.100000    24.440728689    37.534806753    13.188716437   0   0   0 # h
    945      1   2  0.100000    25.497533096    -0.788427728    16.165329004   0   1   0 # h
    946      1   2  0.100000    23.408771940    -0.427111590    17.172695931   0   1   0 # h
    947      1   1 -0.100000    26.491682587    39.137286655    11.475924030   0   0   0 # cp
    948      1   1  0.000000    27.217184843    38.367432804    12.382643808   0   0   0 # cp
    949      1   1 -0.100000    28.342386285    37.738328907    11.908778406   0   0   0 # cp
    950      1   1 -0.100000    28.801420525    37.954264979    10.639227447   0   0   0 # cp
    951      1   1  0.000000    28.128095167    38.796170015     9.776563182   0   0   0 # cp
    952      1   1 -0.100000    26.937271086    39.361696443    10.193120600   0   0   0 # cp
    953      1   3  0.000000    27.035695756    38.491807769    13.975089446   0   0   0 # c
    954      1   1  0.000000    27.218711007    37.136682979    14.839723672   0   0   0 # cp
    955      1   1 -0.100000    27.567515748    37.191624821    16.179297825   0   0   0 # cp
    956      1   1 -0.100000    27.654302622    36.065845281    16.942747640   0   0   0 # cp
    957      1   1  0.000000    27.442884497    34.840127723    16.396709994   0   0   0 # cp
    958      1   1 -0.100000    27.068568165    34.770130577    15.054986791   0   0   0 # cp
    959      1   1 -0.100000    26.954162165    35.895347791    14.289387927   0   0   0 # cp
    960      1   1 -0.100000    27.172110671    20.597992406    13.830028608   0   0   0 # cp
    961      1   1 -0.100000    27.861784136    21.718850604    14.119254846   0   0   0 # cp
    962      1   1  0.000000    29.029449048    21.626159405    14.873750288   0   0   0 # cp
    963      1   1 -0.100000    29.441610955    20.338579870    15.301052953   0   0   0 # cp
    964      1   1 -0.100000    29.154935175    39.649117685    14.960428616   0   0   0 # cp
    965      1   1  0.000000    27.994120755    39.745232385    14.234228991   0   0   0 # cp
    966      1   3  0.000000    29.654507601    22.950160098    15.476916832   0   0   0 # c
    967      1   1  0.000000    31.577591569    25.546132841    12.580535444  -1   0   0 # cp
    968      1   1 -0.100000    31.261565136    26.029593115    13.821253323  -1   0   0 # cp
    969      1   1 -0.100000    30.532072718    25.253099792    14.697528234  -1   0   0 # cp
    970      1   1  0.000000    30.037038293    24.004256359    14.338099714   0   0   0 # cp
    971      1   1 -0.100000    30.293348055    23.591175868    13.029149516   0   0   0 # cp
    972      1   1 -0.100000    31.046381141    24.362036817    12.158068141  -1   0   0 # cp
    973      1   1  0.000000    31.073389418    22.722302211    16.145271209  -1   0   0 # cp
    974      1   1 -0.100000    31.376383140    23.298528163    17.364498594  -1   0   0 # cp
    975      1   1 -0.100000     2.612920081    23.211059896    17.868450688   0   0   0 # cp
    976      1   1  0.000000     3.599893086    22.572231818    17.146011900   0   0   0 # cp
    977      1   1 -0.100000     3.322433215    22.018813548    15.937887938   0   0   0 # cp
    978      1   1 -0.100000     2.041645905    22.105069314    15.442173866   0   0   0 # cp
    979      1   1 -0.100000    27.806641706    24.561734937    16.309673492   0   0   0 # cp
    980      1   1 -0.100000    26.681325007    24.791393267    17.045185664   0   0   0 # cp
    981      1   1  0.000000    25.993792734    23.506608593    35.950373622   0   0  -1 # cp
    982      1   1 -0.100000    27.322319379    23.241286951     0.417990117   0   0   0 # cp
    983      1   1 -0.100000    28.159956960    22.572590783    17.551286808   0   0   0 # cp
    984      1   1  0.000000    28.522687449    23.419375702    16.487865508   0   0   0 # cp
    985      1   2  0.100000    25.613525270    39.683983313    11.754405021   0   0   0 # h
    986      1   2  0.100000    28.967080013    37.164909982    12.576058258   0   0   0 # h
    987      1   2  0.100000    29.764521045    37.543537640    10.351075734   0   0   0 # h
    988      1   2  0.100000    26.415092582    40.082630515     9.581357858   0   0   0 # h
    989      1   2  0.100000    27.696159193    38.136824130    16.674832810   0   0   0 # h
    990      1   2  0.100000    27.587733359    35.745489257    35.921003279   0   0  -1 # h
    991      1   2  0.100000    26.861284111    33.813952535    14.618908842   0   0   0 # h
    992      1   2  0.100000    26.611502245    35.840142319    13.276648377   0   0   0 # h
    993      1   2  0.100000    26.204335279    20.775138406    13.340761685   0   0   0 # h
    994      1   2  0.100000    27.452646711    22.695919007    13.886262069   0   0   0 # h
    995      1   2  0.100000    30.282500156    20.212984136    16.004687558  -1   0   0 # h
    996      1   2  0.100000    29.517440616    38.705201526    15.321289835   0   0   0 # h
    997      1   2  0.100000     1.553019211    27.028412644    14.118001234   0   0   0 # h
    998      1   2  0.100000    30.453102431    25.576993032    15.742861701  -1   0   0 # h
    999      1   2  0.100000    30.035672360    22.600573493    12.660050274   0   0   0 # h
   1000      1   2  0.100000    31.272770127    24.016471784    11.149268515  -1   0   0 # h
   1001      1   2  0.100000    30.397919230    23.444269161    35.866202518  -1   0  -1 # h
   1002      1   2  0.100000     3.061011557    24.001312848     0.967430425   0   0   0 # h
   1003      1   2  0.100000     4.098622343    21.567025301    15.300515690   0   0   0 # h
   1004      1   2  0.100000     1.911358232    21.755659247    14.431941540   0   0   0 # h
   1005      1   2  0.100000    28.013797580    25.272788200    15.534941167   0   0   0 # h
   1006      1   2  0.100000    26.146026634    25.693521219    16.848368552   0   0   0 # h
   1007      1   2  0.100000    27.042221180    22.478420472     1.138638030   0   0   0 # h
   1008      1   2  0.100000    28.704837496    21.674820649    17.736284148   0   0   0 # h
   1009      1   1  0.000000     5.409152420    21.109571612     5.213056688   0   0   0 # cp
   1010      1   1 -0.100000     6.721601195    20.973063461     4.842703834   0   0   0 # cp
   1011      1   1 -0.100000     7.611119445    22.016122758     4.905205356   0   0   0 # cp
   1012      1   1  0.000000     7.225238694    23.253927785     5.370474560   0   0   0 # cp
   1013      1   1 -0.100000     5.897945180    23.383568928     5.799030837   0   0   0 # cp
   1014      1   1 -0.100000     5.022148097    22.310424305     5.722381407   0   0   0 # cp
   1015      1   2  0.100000     6.666186980    -0.359339934     4.376718280   0   1   0 # h
   1016      1   2  0.100000     8.606633540    21.842393708     4.502795847   0   0   0 # h
   1017      1   2  0.100000     5.500848063    24.359804650     5.978655553   0   0   0 # h
   1018      1   2  0.100000     3.998765834    22.477587089     6.012323994   0   0   0 # h
   1019      1   1 -0.100000     6.475752277    25.447760199     3.289657436   0   0   0 # cp
   1020      1   1  0.000000     7.658854809    24.815022627     3.567780252   0   0   0 # cp
   1021      1   1 -0.100000     8.321291231    24.224865853     2.499702678   0   0   0 # cp
   1022      1   1 -0.100000     7.786550730    24.249448113     1.225137270   0   0   0 # cp
   1023      1   1  0.000000     6.558384566    24.773809698     0.998949816   0   0   0 # cp
   1024      1   1 -0.100000     5.894775432    25.358914130     2.038552485   0   0   0 # cp
   1025      1   3  0.000000     8.135081815    24.553839179     5.053489767   0   0   0 # c
   1026      1   1  0.000000     9.728271877    24.371426581     5.146615243   0   0   0 # cp
   1027      1   1 -0.100000    10.585039598    25.073374937     4.315828546   0   0   0 # cp
   1028      1   1 -0.100000    11.884584129    24.678803892     4.131547556   0   0   0 # cp
   1029      1   1  0.000000    12.432789693    23.695762957     4.892669234   0   0   0 # cp
   1030      1   1 -0.100000    11.656154875    23.142533481     5.928869241   0   0   0 # cp
   1031      1   1 -0.100000    10.308506938    23.507811957     6.056200420   0   0   0 # cp
   1032      1   1 -0.100000     8.223317437    27.022455052     5.688354790   0   0   0 # cp
   1033      1   1 -0.100000     8.447789608    27.994481748     6.635906508   0   0   0 # cp
   1034      1   1  0.000000     8.365405851    27.743157573     8.022580661   0   0   0 # cp
   1035      1   1 -0.100000     7.851329591    26.489203315     8.355862413   0   0   0 # cp
   1036      1   1 -0.100000     7.708878197    25.498471555     7.422637692   0   0   0 # cp
   1037      1   1  0.000000     7.933762482    25.735926623     6.070527417   0   0   0 # cp
   1038      1   3  0.000000     9.188417845    28.651388968     9.097463558   0   0   0 # c
   1039      1   1  0.000000    13.045469667    27.014878954     7.924261649   0   0   0 # cp
   1040      1   1 -0.100000    12.887116714    28.401557363     8.009865452   0   0   0 # cp
   1041      1   1 -0.100000    11.735179067    28.925651145     8.540143402   0   0   0 # cp
   1042      1   1  0.000000    10.664577295    28.132693128     8.887573063   0   0   0 # cp
   1043      1   1 -0.100000    10.949935694    26.788837347     9.022963177   0   0   0 # cp
   1044      1   1 -0.100000    12.089343639    26.224096866     8.511310322   0   0   0 # cp
   1045      1   1  0.000000     8.876964181    28.449832657    10.678626686   0   0   0 # cp
   1046      1   1 -0.100000     7.576645059    28.156761566    11.096974978   0   0   0 # cp
   1047      1   1 -0.100000     7.270312138    28.040308617    12.415954074   0   0   0 # cp
   1048      1   1  0.000000     8.252784166    28.015269159    13.368341153   0   0   0 # cp
   1049      1   1 -0.100000     9.529533383    28.386869003    13.005151797   0   0   0 # cp
   1050      1   1 -0.100000     9.830671682    28.603156976    11.667905780   0   0   0 # cp
   1051      1   1 -0.100000     7.801190518    30.884403859     9.357140366   0   0   0 # cp
   1052      1   1 -0.100000     7.515031861    32.171364801     9.000219071   0   0   0 # cp
   1053      1   1  0.000000     8.132928932    32.783424147     7.971003475   0   0   0 # cp
   1054      1   1 -0.100000     9.101150501    32.109322118     7.308200809   0   0   0 # cp
   1055      1   1 -0.100000     9.425940163    30.844840111     7.664047579   0   0   0 # cp
   1056      1   1  0.000000     8.815308056    30.175157691     8.730871541   0   0   0 # cp
   1057      1   2  0.100000     5.886646010    25.843583751     4.095013715   0   0   0 # h
   1058      1   2  0.100000     9.205347443    23.607117784     2.607513325   0   0   0 # h
   1059      1   2  0.100000     8.359696441    23.791561271     0.437689737   0   0   0 # h
   1060      1   2  0.100000     4.888186242    25.740579670     1.926801914   0   0   0 # h
   1061      1   2  0.100000    10.222101831    25.886465713     3.708722078   0   0   0 # h
   1062      1   2  0.100000    12.461577585    25.118569200     3.348219034   0   0   0 # h
   1063      1   2  0.100000    12.032478137    22.407379934     6.590239207   0   0   0 # h
   1064      1   2  0.100000     9.654338402    23.056079289     6.801204227   0   0   0 # h
   1065      1   2  0.100000     8.417747763    27.246811551     4.662004594   0   0   0 # h
   1066      1   2  0.100000     8.810170627    28.905289501     6.215409167   0   0   0 # h
   1067      1   2  0.100000     7.783840749    26.194906015     9.396539606   0   0   0 # h
   1068      1   2  0.100000     7.524456423    24.479636055     7.810003854   0   0   0 # h
   1069      1   2  0.100000    13.703013413    29.075343928     7.774723625   0   0   0 # h
   1070      1   2  0.100000    11.646826699    29.974974007     8.666758232   0   0   0 # h
   1071      1   2  0.100000    10.204098783    26.124181055     9.444535043   0   0   0 # h
   1072      1   2  0.100000    12.133776392    25.148158912     8.510773060   0   0   0 # h
   1073      1   2  0.100000     6.815954879    28.041135348    10.347135810   0   0   0 # h
   1074      1   2  0.100000     6.230161234    27.956163322    12.680824418   0   0   0 # h
   1075      1   2  0.100000    10.318743695    28.385080808    13.756781840   0   0   0 # h
   1076      1   2  0.100000    10.869957762    28.840417191    11.428465855   0   0   0 # h
   1077      1   2  0.100000     7.232142416    30.488828945    10.171271930   0   0   0 # h
   1078      1   2  0.100000     6.801709007    32.753121067     9.570075348   0   0   0 # h
   1079      1   2  0.100000     9.622035850    32.598090796     6.506784454   0   0   0 # h
   1080      1   2  0.100000    10.168530539    30.368035309     7.049061263   0   0   0 # h
   1081      1   1  0.000000     2.267705426    21.293486731     4.021229684   0   0   0 # cp
   1082      1   1 -0.100000    31.408679051    20.726943581     4.901623607  -1   0   0 # cp
   1083      1   1 -0.100000    30.538904003    21.509077528     5.597378364  -1   0   0 # cp
   1084      1   1  0.000000    30.535272663    22.890567653     5.458764675  -1   0   0 # cp
   1085      1   1 -0.100000    31.341867236    23.410069875     4.442085200  -1   0   0 # cp
   1086      1   1 -0.100000     2.181702207    22.625274708     3.720362762   0   0   0 # cp
   1087      1   2  0.100000    31.934557998    40.112914455     5.204818666  -1   0   0 # h
   1088      1   2  0.100000    29.997711362    21.105753131     6.446252894   0   0   0 # h
   1089      1   2  0.100000    31.424428135    24.471777544     4.291114477  -1   0   0 # h
   1090      1   2  0.100000     2.915123779    23.055680248     3.049680248   0   0   0 # h
   1091      1   1 -0.100000     2.178105352    24.057433201     7.760396629   0   0   0 # cp
   1092      1   1  0.000000    30.932935146    23.527094747     7.804989405  -1   0   0 # cp
   1093      1   1 -0.100000    30.715437347    22.482899641     8.693979525  -1   0   0 # cp
   1094      1   1 -0.100000     1.675958158    21.938139796     9.427879910   0   0   0 # cp
   1095      1   1  0.000000     2.957349354    22.444625420     9.355707666   0   0   0 # cp
   1096      1   1 -0.100000     3.188015727    23.537583335     8.555365836   0   0   0 # cp
   1097      1   3  0.000000    29.877322542    23.770976392     6.641458219   0   0   0 # c
   1098      1   1  0.000000    28.404276461    23.535535267     7.214717158   0   0   0 # cp
   1099      1   1 -0.100000    27.939870605    24.227099639     8.337237317   0   0   0 # cp
   1100      1   1 -0.100000    26.722262380    23.939994691     8.876290553   0   0   0 # cp
   1101      1   1  0.000000    25.937568847    22.968776157     8.358548724   0   0   0 # cp
   1102      1   1 -0.100000    26.401685528    22.251294792     7.279546816   0   0   0 # cp
   1103      1   1 -0.100000    27.586964465    22.556789592     6.678350234   0   0   0 # cp
   1104      1   1 -0.100000    30.146715901    26.372341106     6.703780653   0   0   0 # cp
   1105      1   1 -0.100000    29.568329102    27.596344107     6.473295100   0   0   0 # cp
   1106      1   1  0.000000    28.503783270    27.745907504     5.573201558   0   0   0 # cp
   1107      1   1 -0.100000    28.144067274    26.627069972     4.846643758   0   0   0 # cp
   1108      1   1 -0.100000    28.744961989    25.421142971     5.063518665   0   0   0 # cp
   1109      1   1  0.000000    29.669859781    25.242952672     6.079660877   0   0   0 # cp
   1110      1   3  0.000000    27.552520915    29.017559387     5.487955930   0   0   0 # c
   1111      1   1  0.000000    23.807394541    27.795025101     7.355658984   0   0   0 # cp
   1112      1   1 -0.100000    23.792534068    28.691584014     6.276119813   0   0   0 # cp
   1113      1   1 -0.100000    24.984713018    29.064760944     5.687459353   0   0   0 # cp
   1114      1   1  0.000000    26.182104631    28.547616650     6.129626276   0   0   0 # cp
   1115      1   1 -0.100000    26.161303819    27.713789503     7.267727044   0   0   0 # cp
   1116      1   1 -0.100000    25.002972468    27.317846346     7.852268493   0   0   0 # cp
   1117      1   1  0.000000    27.720698117    29.318037516     3.918970748   0   0   0 # cp
   1118      1   1 -0.100000    28.943932724    29.801971255     3.491668084   0   0   0 # cp
   1119      1   1 -0.100000    29.335398247    29.630917731     2.194358570   0   0   0 # cp
   1120      1   1  0.000000    28.533252808    29.089526405     1.267401910   0   0   0 # cp
   1121      1   1 -0.100000    27.279985546    28.697560055     1.619846018   0   0   0 # cp
   1122      1   1 -0.100000    26.863079576    28.849604028     2.944555913   0   0   0 # cp
   1123      1   1 -0.100000    27.413137843    31.562373159     5.822312206   0   0   0 # cp
   1124      1   1 -0.100000    27.544931241    32.739174513     6.540452895   0   0   0 # cp
   1125      1   1  0.000000    28.106763497    32.719075203     7.797825907   0   0   0 # cp
   1126      1   1 -0.100000    28.491363529    31.514296518     8.351027051   0   0   0 # cp
   1127      1   1 -0.100000    28.320625955    30.368443389     7.627513739   0   0   0 # cp
   1128      1   1  0.000000    27.858305456    30.350984455     6.335039586   0   0   0 # cp
   1129      1   2  0.100000     2.443590991    24.796263322     7.020049096   0   0   0 # h
   1130      1   2  0.100000    29.779882107    21.957906526     8.719409944   0   0   0 # h
   1131      1   2  0.100000    31.508174645    21.036591875    10.020480294  -1   0   0 # h
   1132      1   2  0.100000     4.194204939    23.921193950     8.456509562   0   0   0 # h
   1133      1   2  0.100000    28.568423775    24.982937880     8.777255191   0   0   0 # h
   1134      1   2  0.100000    26.413102911    24.475125600     9.774055958   0   0   0 # h
   1135      1   2  0.100000    25.853842424    21.382314236     6.912059361   0   0   0 # h
   1136      1   2  0.100000    27.879177406    21.994655343     5.791867339   0   0   0 # h
   1137      1   2  0.100000    30.928348514    26.320671746     7.432308414  -1   0   0 # h
   1138      1   2  0.100000    29.945378377    28.417936429     7.043688640   0   0   0 # h
   1139      1   2  0.100000    27.310112829    26.582716228     4.130473031   0   0   0 # h
   1140      1   2  0.100000    28.356996292    24.532145682     4.547567711   0   0   0 # h
   1141      1   2  0.100000    22.880327209    29.122422236     5.911139583   0   0   0 # h
   1142      1   2  0.100000    24.953863408    29.766180597     4.844315621   0   0   0 # h
   1143      1   2  0.100000    27.056051444    27.325156763     7.731205374   0   0   0 # h
   1144      1   2  0.100000    25.034512559    26.643975675     8.686995114   0   0   0 # h
   1145      1   2  0.100000    29.663907131    30.160295469     4.241865427   0   0   0 # h
   1146      1   2  0.100000    30.333460639    29.950477930     1.970857427   0   0   0 # h
   1147      1   2  0.100000    26.690083037    28.249937929     0.829891260   0   0   0 # h
   1148      1   2  0.100000    25.889796490    28.450628513     3.229842227   0   0   0 # h
   1149      1   2  0.100000    26.967208866    31.626351481     4.845748321   0   0   0 # h
   1150      1   2  0.100000    27.156895815    33.654797369     6.141087873   0   0   0 # h
   1151      1   2  0.100000    28.914701898    31.438107895     9.334754434   0   0   0 # h
   1152      1   2  0.100000    28.538581285    29.467759898     8.147941879   0   0   0 # h
   1153      1   1  0.000000    16.455731513    36.618663588     2.839073403   0   0   0 # cp
   1154      1   1 -0.100000    15.303399592    37.068654625     2.247726631   0   0   0 # cp
   1155      1   1 -0.100000    14.549472656    36.226742871     1.480515979   0   0   0 # cp
   1156      1   1  0.000000    14.911339333    34.902840238     1.372705332   0   0   0 # cp
   1157      1   1 -0.100000    15.961933552    34.449786622     2.130603436   0   0   0 # cp
   1158      1   1 -0.100000    16.715003534    35.267911261     2.902470361   0   0   0 # cp
   1159      1   2  0.100000    15.091504190    38.127987941     2.233757809   0   0   0 # h
   1160      1   2  0.100000    13.767385954    36.675109495     0.880035747   0   0   0 # h
   1161      1   2  0.100000    16.369924089    33.454553946     2.118067314   0   0   0 # h
   1162      1   2  0.100000    17.599778269    34.857119992     3.379559338   0   0   0 # h
   1163      1   1 -0.100000    16.261249971    33.647427571    16.746825966   0   0   0 # cp
   1164      1   1  0.000000    14.959981406    34.054539199    16.883469693   0   0   0 # cp
   1165      1   1 -0.100000    14.491475594    34.977538444    15.957050296   0   0   0 # cp
   1166      1   1 -0.100000    15.249037565    35.347355206    14.881630136   0   0   0 # cp
   1167      1   1  0.000000    16.472266454    34.774082528    14.674963215   0   0   0 # cp
   1168      1   1 -0.100000    16.981027897    33.932087856    15.611590597   0   0   0 # cp
   1169      1   3  0.000000    13.795218214    33.155237942    36.038842824   0   0  -1 # c
   1170      1   1  0.000000    12.507602477    33.621173569    17.777653349   0   0   0 # cp
   1171      1   1 -0.100000    12.064065469    32.908249978    16.687010757   0   0   0 # cp
   1172      1   1 -0.100000    10.777173947    32.949129492    16.255230906   0   0   0 # cp
   1173      1   1  0.000000     9.846503379    33.622429401    16.996294789   0   0   0 # cp
   1174      1   1 -0.100000     9.938540022    33.867714043    36.044394535   0   0  -1 # cp
   1175      1   1 -0.100000    11.821075933    34.704655685     0.609255517   0   0   0 # cp
   1176      1   1 -0.100000    14.655514722    30.660488945    35.859934458   0   0  -1 # cp
   1177      1   1 -0.100000    14.441740418    29.337701259    36.089882748   0   0  -1 # cp
   1178      1   1  0.000000    13.915045730    29.789587653     1.008441452   0   0   0 # cp
   1179      1   1 -0.100000    13.347680478    30.737001280     1.855883282   0   0   0 # cp
   1180      1   1 -0.100000    13.636708531    32.062769569     1.699539935   0   0   0 # cp
   1181      1   1  0.000000    14.464466737    32.477805190     0.672115214   0   0   0 # cp
   1182      1   3  0.000000    13.205046411    28.376516327     0.715096202   0   0   0 # c
   1183      1   1  0.000000     9.015591888    28.362696005    16.821326347   0   0   0 # cp
   1184      1   1 -0.100000     9.254850440    27.321604507    17.708525592   0   0   0 # cp
   1185      1   1 -0.100000    10.707717333    27.709711262     0.536546011   0   0   0 # cp
   1186      1   1  0.000000    11.679601068    28.679562799     0.359249432   0   0   0 # cp
   1187      1   1 -0.100000    11.078320166    29.351777645    17.483591750   0   0   0 # cp
   1188      1   1 -0.100000     9.915360239    29.396215243    16.750049540   0   0   0 # cp
   1189      1   1  0.000000    13.505903387    27.735455361     2.139378721   0   0   0 # cp
   1190      1   1 -0.100000    14.704153113    27.127005685     2.382579483   0   0   0 # cp
   1191      1   1 -0.100000    15.076435303    26.817100287     3.663950214   0   0   0 # cp
   1192      1   1  0.000000    14.295556356    27.147545408     4.743489385   0   0   0 # cp
   1193      1   1 -0.100000    13.055426807    27.688070520     4.515690144   0   0   0 # cp
   1194      1   1 -0.100000    12.650988463    27.955305661     3.217127017   0   0   0 # cp
   1195      1   1 -0.100000    13.317306314    25.739685118    17.346589848   0   0   0 # cp
   1196      1   1 -0.100000    13.705340794    25.007303545    16.232486799   0   0   0 # cp
   1197      1   1  0.000000    13.992912834    25.625000374    15.022571962   0   0   0 # cp
   1198      1   1 -0.100000    13.953340356    27.019268150    14.992664358   0   0   0 # cp
   1199      1   1 -0.100000    13.578630647    27.737652080    16.120557141   0   0   0 # cp
   1200      1   1  0.000000    13.335579750    27.112664838    17.336740038   0   0   0 # cp
   1201      1   2  0.100000    16.763581039    33.109952434    17.527289089   0   0   0 # h
   1202      1   2  0.100000    13.530782109    35.434454029    16.049996684   0   0   0 # h
   1203      1   2  0.100000    14.903128202    36.084297116    14.178532793   0   0   0 # h
   1204      1   2  0.100000    17.997960573    33.542609330    15.506645350   0   0   0 # h
   1205      1   2  0.100000    12.768865946    32.276989815    16.156732806   0   0   0 # h
   1206      1   2  0.100000    10.466053859    32.342127859    15.410833562   0   0   0 # h
   1207      1   2  0.100000     9.785698865    35.229979505     0.815027002   0   0   0 # h
   1208      1   2  0.100000    12.076903952    35.240969387     1.517587082   0   0   0 # h
   1209      1   2  0.100000    15.676967524    31.283276590    17.183262091   0   0   0 # h
   1210      1   2  0.100000    15.312699452    29.046396743    17.606624831   0   0   0 # h
   1211      1   2  0.100000    12.501934074    30.493072905     2.478033096   0   0   0 # h
   1212      1   2  0.100000    13.068069322    32.776365724     2.296796593   0   0   0 # h
   1213      1   2  0.100000     8.624654083    26.483432400    17.701003919   0   0   0 # h
   1214      1   2  0.100000    10.901480070    26.872278621     1.172127384   0   0   0 # h
   1215      1   2  0.100000    11.839210847    30.095004229    17.264388707   0   0   0 # h
   1216      1   2  0.100000     9.732798737    30.222542911    16.074173490   0   0   0 # h
   1217      1   2  0.100000    15.405753928    27.008848572     1.566119782   0   0   0 # h
   1218      1   2  0.100000    16.091132518    26.387672309     3.810622839   0   0   0 # h
   1219      1   2  0.100000    12.416162781    27.971827890     5.347372279   0   0   0 # h
   1220      1   2  0.100000    11.743864248    28.480515077     3.059709146   0   0   0 # h
   1221      1   2  0.100000    12.725759598    24.778914735    36.143788072   0   0  -1 # h
   1222      1   2  0.100000    13.682541133    23.926956697    16.281019499   0   0   0 # h
   1223      1   2  0.100000    14.147362924    27.547257195    14.084870055   0   0   0 # h
   1224      1   2  0.100000    13.546158699    28.834592585    16.034416075   0   0   0 # h
   1225      1   1  0.000000    19.335436187    36.750043559     1.492693926   0   0   0 # cp
   1226      1   1 -0.100000    20.265482023    36.231453693     2.365028913   0   0   0 # cp
   1227      1   1 -0.100000    21.000284488    35.157017917     1.993243359   0   0   0 # cp
   1228      1   1  0.000000    20.826051510    34.557297846     0.731034986   0   0   0 # cp
   1229      1   1 -0.100000    19.720808543    34.755346975    17.740582246   0   0   0 # cp
   1230      1   1 -0.100000    18.697235039    35.416588444    36.028455751   0   0  -1 # cp
   1231      1   2  0.100000    20.416302832    36.655596170     3.330489376   0   0   0 # h
   1232      1   2  0.100000    21.674289574    34.723452247     2.747022452   0   0   0 # h
   1233      1   2  0.100000    19.594658463    34.365452369    16.759541175   0   0   0 # h
   1234      1   2  0.100000    18.318773865    36.269178963    17.415001256   0   0   0 # h
   1235      1   1 -0.100000    19.282959425    32.113697160     1.265790122   0   0   0 # cp
   1236      1   1  0.000000    20.635597957    32.334686759     1.558419022   0   0   0 # cp
   1237      1   1 -0.100000    21.079222043    31.942394040     2.818836521   0   0   0 # cp
   1238      1   1 -0.100000    20.243329824    31.204090322     3.650518655   0   0   0 # cp
   1239      1   1  0.000000    18.947877875    30.937583082     3.270136904   0   0   0 # cp
   1240      1   1 -0.100000    18.479010054    31.363858852     2.075623588   0   0   0 # cp
   1241      1   3  0.000000    21.515041814    33.158350911     0.506101144   0   0   0 # c
   1242      1   1  0.000000    23.075155525    33.317691175     0.763807990   0   0   0 # cp
   1243      1   1 -0.100000    23.899998296    32.290625753     1.232838031   0   0   0 # cp
   1244      1   1 -0.100000    25.253986887    32.430887006     1.328112556   0   0   0 # cp
   1245      1   1  0.000000    25.834989240    33.616499511     0.887915595   0   0   0 # cp
   1246      1   1 -0.100000    25.057715621    34.636781091     0.482282513   0   0   0 # cp
   1247      1   1 -0.100000    23.708946976    34.495844638     0.398469584   0   0   0 # cp
   1248      1   1 -0.100000    20.813530513    30.727770659    16.853562088   0   0   0 # cp
   1249      1   1 -0.100000    21.314957153    29.902531219    15.922665504   0   0   0 # cp
   1250      1   1  0.000000    22.432161148    30.267701251    15.195749530   0   0   0 # cp
   1251      1   1 -0.100000    22.661026077    31.632598229    15.077193636   0   0   0 # cp
   1252      1   1 -0.100000    21.994926335    32.539299698    15.902249535   0   0   0 # cp
   1253      1   1  0.000000    21.239821174    32.056584840    16.960835473   0   0   0 # cp
   1254      1   3  0.000000    23.435006041    29.125898728    14.710243443   0   0   0 # c
   1255      1   1  0.000000    27.535503498    29.446767525    16.043191361   0   0   0 # cp
   1256      1   1 -0.100000    27.239758990    28.709266362    14.921029376   0   0   0 # cp
   1257      1   1 -0.100000    25.987228543    28.760313808    14.376961692   0   0   0 # cp
   1258      1   1  0.000000    24.973700445    29.444451657    15.029556373   0   0   0 # cp
   1259      1   1 -0.100000    25.313636224    30.213813739    16.133451437   0   0   0 # cp
   1260      1   1 -0.100000    26.572812800    30.214982484    16.626658285   0   0   0 # cp
   1261      1   1  0.000000    23.100531013    28.941821120    13.183343813   0   0   0 # cp
   1262      1   1 -0.100000    22.042941109    28.140041406    12.761413772   0   0   0 # cp
   1263      1   1 -0.100000    21.818180722    27.926143206    11.428107680   0   0   0 # cp
   1264      1   1  0.000000    22.529138542    28.595688831    10.481093225   0   0   0 # cp
   1265      1   1 -0.100000    23.467721437    29.542810742    10.902844178   0   0   0 # cp
   1266      1   1 -0.100000    23.763745989    29.683706755    12.232926697   0   0   0 # cp
   1267      1   1 -0.100000    23.483362181    26.478765851    15.009140403   0   0   0 # cp
   1268      1   1 -0.100000    23.520444293    25.342446304    15.786917215   0   0   0 # cp
   1269      1   1  0.000000    23.416220763    25.418020835    17.152100874   0   0   0 # cp
   1270      1   1 -0.100000    23.214568279    26.634330615    17.742731296   0   0   0 # cp
   1271      1   1 -0.100000    23.316685004    27.774898767    16.984116842   0   0   0 # cp
   1272      1   1  0.000000    23.400849635    27.744166082    15.595472727   0   0   0 # cp
   1273      1   2  0.100000    18.351943954    31.586923603    36.126953851   0   0  -1 # h
   1274      1   2  0.100000    22.060666804    32.210609115     3.204769983   0   0   0 # h
   1275      1   2  0.100000    20.581727911    30.944875105     4.639797749   0   0   0 # h
   1276      1   2  0.100000    17.472875404    31.139158970     1.731954764   0   0   0 # h
   1277      1   2  0.100000    23.464203940    31.329440906     1.493768451   0   0   0 # h
   1278      1   2  0.100000    25.883427743    31.602941734     1.617696969   0   0   0 # h
   1279      1   2  0.100000    24.935107780    34.735179145    35.951089971   0   0  -1 # h
   1280      1   2  0.100000    22.866293125    34.897366115    17.839259433   0   0   0 # h
   1281      1   2  0.100000    20.257453268    30.177928253    17.595342322   0   0   0 # h
   1282      1   2  0.100000    21.038283205    28.881760094    15.972451817   0   0   0 # h
   1283      1   2  0.100000    23.469178338    31.995733296    14.420121768   0   0   0 # h
   1284      1   2  0.100000    22.353960975    33.553746818    15.861059420   0   0   0 # h
   1285      1   2  0.100000    27.978741842    28.073546487    14.468296293   0   0   0 # h
   1286      1   2  0.100000    25.704514794    28.024243827    13.605273854   0   0   0 # h
   1287      1   2  0.100000    24.564664396    30.693875967    16.757571213   0   0   0 # h
   1288      1   2  0.100000    26.788279662    30.731645313    17.554868557   0   0   0 # h
   1289      1   2  0.100000    21.418080797    27.607251475    13.445886020   0   0   0 # h
   1290      1   2  0.100000    21.027490144    27.235911781    11.168609960   0   0   0 # h
   1291      1   2  0.100000    23.988168833    30.131928591    10.166257482   0   0   0 # h
   1292      1   2  0.100000    24.551813312    30.331645446    12.529137345   0   0   0 # h
   1293      1   2  0.100000    23.615935295    26.340782256    13.948405415   0   0   0 # h
   1294      1   2  0.100000    23.686641638    24.383257695    15.304813789   0   0   0 # h
   1295      1   2  0.100000    23.470050994    27.127368489     0.938418257   0   0   0 # h
   1296      1   2  0.100000    23.316665747    28.692022517    17.545735097   0   0   0 # h
   1297      1   4 -0.200000    17.589825025    37.552464078     3.228051352   0   0   0 # c2
   1298      1   4 -0.200000    18.453788207    37.900140187     1.981423587   0   0   0 # c2
   1299      1   2  0.100000    17.136777996    38.458805816     3.674158199   0   0   0 # h
   1300      1   2  0.100000    18.232645348    37.137543545     4.022662384   0   0   0 # h
   1301      1   2  0.100000    19.028828904    38.769756532     2.260262753   0   0   0 # h
   1302      1   2  0.100000    17.790399756    38.245574565     1.181619019   0   0   0 # h
   1303      1   4 -0.200000    22.049601291    28.544404241     9.010785231   0   0   0 # c2
   1304      1   4 -0.200000    22.532089271    27.413615950     8.104960890   0   0   0 # c2
   1305      1   2  0.100000    20.973659510    28.473329934     9.038722873   0   0   0 # h
   1306      1   2  0.100000    22.244760989    29.538829266     8.575960893   0   0   0 # h
   1307      1   2  0.100000    22.704003788    26.504357616     8.678040742   0   0   0 # h
   1308      1   2  0.100000    21.724623528    27.165007229     7.368016018   0   0   0 # h
   1309      1   4 -0.200000    28.868401396    29.363767991    16.732140795   0   0   0 # c2
   1310      1   4 -0.200000    28.891895647    28.283494260    17.846781106   0   0   0 # c2
   1311      1   2  0.100000    29.636219600    29.105986605    15.977108090   0   0   0 # h
   1312      1   2  0.100000    29.186346196    30.327909859    17.211916083   0   0   0 # h
   1313      1   2  0.100000    28.481457011    27.359096100    17.457265895   0   0   0 # h
   1314      1   2  0.100000    29.666513679    27.621181593    35.933002139   0   0  -1 # h
   1315      1   4 -0.200000     7.867972517    27.428048798    14.750896295   0   0   0 # c2
   1316      1   4 -0.200000     7.778207479    28.371686681    15.935738889   0   0   0 # c2
   1317      1   2  0.100000     6.846791096    26.934630842    14.700214546   0   0   0 # h
   1318      1   2  0.100000     8.518742883    26.613514583    14.999290593   0   0   0 # h
   1319      1   2  0.100000     6.892918182    28.101751592    16.535144596   0   0   0 # h
   1320      1   2  0.100000     7.536669235    29.381356069    15.591353715   0   0   0 # h
   1321      1   4 -0.200000    15.013681413    27.054689832     6.136073425   0   0   0 # c2
   1322      1   4 -0.200000    14.286317079    26.371002790     7.313394345   0   0   0 # c2
   1323      1   2  0.100000    15.958424826    26.498170419     5.990117150   0   0   0 # h
   1324      1   2  0.100000    15.352582540    28.068614207     6.450371906   0   0   0 # h
   1325      1   2  0.100000    14.087764261    25.322947334     7.009662023   0   0   0 # h
   1326      1   2  0.100000    14.970726217    26.265957174     8.160119826   0   0   0 # h
   1327      1   4 -0.200000     3.931960156    -0.373333663     4.828555925   0   1   0 # c2
   1328      1   4 -0.200000     3.472695767    20.485691161     3.612193940   0   0   0 # c2
   1329      1   2  0.100000     5.278264307    39.515600485     4.575505353   0   0   0 # h
   1330      1   2  0.100000     4.144686199    40.200636471     5.715396996   0   0   0 # h
   1331      1   2  0.100000     3.542461314    40.019557519     3.069379868   0   0   0 # h
   1332      1   2  0.100000     4.129667868    21.023777910     2.858056673   0   0   0 # h
   1333      1   4 -0.200000    25.281074176    24.594167194     0.955610653   0   0   0 # c2
   1334      1   4 -0.200000    23.377321555    23.779542072    35.958432557   0   0  -1 # c2
   1335      1   2  0.100000    25.178328460    23.873051808     1.785501913   0   0   0 # h
   1336      1   2  0.100000    25.443167627    25.532041700     1.493947538   0   0   0 # h
   1337      1   2  0.100000    23.067636915    24.517256557     0.839741070   0   0   0 # h
   1338      1   2  0.100000    23.645172250    23.243185978    17.470697454   0   0   0 # h
   1339      1   4 -0.200000    27.612576735    33.556656507    17.226063992   0   0   0 # c2
   1340      1   4 -0.200000    27.310827260    33.829031824     0.772404188   0   0   0 # c2
   1341      1   2  0.100000    27.180918969    32.710327347    16.657282239   0   0   0 # h
   1342      1   2  0.100000    28.678509111    33.327746580    17.255971597   0   0   0 # h
   1343      1   2  0.100000    27.562105750    34.728928427     1.381301530   0   0   0 # h
   1344      1   2  0.100000    27.879546492    33.043232703     1.338320541   0   0   0 # h
   1345      1   4 -0.200000     5.030481811    22.621840585    17.654083006   0   0   0 # c2
   1346      1   4 -0.200000     5.574717679    24.076617890    17.602863995   0   0   0 # c2
   1347      1   2  0.100000     5.303815187    22.616341679     0.764703427   0   0   0 # h
   1348      1   2  0.100000     5.692201700    21.949336921    17.036589466   0   0   0 # h
   1349      1   2  0.100000     6.258072111    24.188645515    16.754347639   0   0   0 # h
   1350      1   2  0.100000     4.776624498    24.806612517    17.425925590   0   0   0 # h
   1351      1   4 -0.200000    14.350680689    24.808664355    13.770750661   0   0   0 # c2
   1352      1   4 -0.200000    13.684553273    25.237414073    12.452487915   0   0   0 # c2
   1353      1   2  0.100000    15.444383736    24.804425624    13.698578417   0   0   0 # h
   1354      1   2  0.100000    14.070367372    23.745622968    13.943928229   0   0   0 # h
   1355      1   2  0.100000    14.242887332    24.793796248    11.630834678   0   0   0 # h
   1356      1   2  0.100000    13.741894565    26.330374454    12.283071184   0   0   0 # h
   1357      1   4 -0.200000     8.059999748    34.734342733    15.452202764   0   0   0 # c2
   1358      1   4 -0.200000     8.375797006    33.670021083    16.530488322   0   0   0 # c2
   1359      1   2  0.100000     6.988620654    34.845081072    15.246252192   0   0   0 # h
   1360      1   2  0.100000     8.434370609    34.333249604    14.496233936   0   0   0 # h
   1361      1   2  0.100000     8.063757717    32.683948561    16.107125582   0   0   0 # h
   1362      1   2  0.100000     7.709334003    33.859316686    17.403897834   0   0   0 # h
   1363      1   4 -0.200000     4.761333490    20.665415527     9.287475347   0   0   0 # c2
   1364      1   4 -0.200000     4.112374473    21.828829829    10.080832766   0   0   0 # c2
   1365      1   2  0.100000     4.797014725    20.934486102     8.190564693   0   0   0 # h
   1366      1   2  0.100000     4.563327415    40.149786923     9.336008046   0   0   0 # h
   1367      1   2  0.100000     4.834771626    22.636902648    10.267620980   0   0   0 # h
   1368      1   2  0.100000     3.803250707    21.480323765    11.073872697   0   0   0 # h
   1369      1   4 -0.200000     3.907678405    26.540069511    12.464665862   0   0   0 # c2
   1370      1   4 -0.200000     2.604842392    26.244674380    11.720736579   0   0   0 # c2
   1371      1   2  0.100000     3.792008138    26.911203806    13.497463207   0   0   0 # h
   1372      1   2  0.100000     4.323142907    27.401508289    11.885138862   0   0   0 # h
   1373      1   2  0.100000     2.788573124    25.689731204    10.805957866   0   0   0 # h
   1374      1   2  0.100000     2.158920195    27.217395861    11.411452547   0   0   0 # h
   1375      1   4 -0.200000     8.836567176    35.178902317     8.678578004   0   0   0 # c2
   1376      1   4 -0.200000     7.954690764    34.311075784     7.735682561   0   0   0 # c2
   1377      1   2  0.100000     8.436769405    35.086228482     9.695257478   0   0   0 # h
   1378      1   2  0.100000     8.767618676    36.246324420     8.422482945   0   0   0 # h
   1379      1   2  0.100000     8.135329647    34.591742750     6.684260120   0   0   0 # h
   1380      1   2  0.100000     6.896165511    34.550210675     7.924082562   0   0   0 # h
   1381      1   4 -0.200000    14.990185034    22.974272944     5.282900795   0   0   0 # c2
   1382      1   4 -0.200000    13.776313257    23.102300320     4.334632728   0   0   0 # c2
   1383      1   2  0.100000    15.899009173    22.847919617     4.678122464   0   0   0 # h
   1384      1   2  0.100000    15.182553001    23.994346734     5.718799658   0   0   0 # h
   1385      1   2  0.100000    13.527837801    22.154342836     3.852350216   0   0   0 # h
   1386      1   2  0.100000    14.123778066    23.718399292     3.491309909   0   0   0 # h
   1387      1   4 -0.200000    16.503781331    30.349030283     4.201570750   0   0   0 # c2
   1388      1   4 -0.200000    18.034079580    30.054044082     4.149993564   0   0   0 # c2
   1389      1   2  0.100000    16.058772448    30.502708725     3.186144888   0   0   0 # h
   1390      1   2  0.100000    16.015437981    29.430639548     4.518197368   0   0   0 # h
   1391      1   2  0.100000    18.168681632    29.005597568     3.827994322   0   0   0 # h
   1392      1   2  0.100000    18.426752241    30.004940688     5.171508399   0   0   0 # h
   1393      1   4 -0.200000    15.632752276    -0.700787598    16.197385658   0   1   0 # c2
   1394      1   4 -0.200000    16.715130519    39.340171637    14.912254091   0   0   0 # c2
   1395      1   2  0.100000    16.304362378    20.796495570    15.955796683   0   0   0 # h
   1396      1   2  0.100000    17.187580957    39.812734977    16.980176918   0   0   0 # h
   1397      1   2  0.100000    17.831319429    39.218977820    14.804622531   0   0   0 # h
   1398      1   2  0.100000    16.388178218    38.307312788    15.051584130   0   0   0 # h
   1399      1   4 -0.200000    10.239700917    39.999041435     6.193918672   0   0   0 # c2
   1400      1   4 -0.200000    11.337158515    40.093763003     5.098082543   0   0   0 # c2
   1401      1   2  0.100000     9.547216914    39.156831746     5.930301940   0   0   0 # h
   1402      1   2  0.100000     9.205715095    20.494134135     6.229557075   0   0   0 # h
   1403      1   2  0.100000    11.543807673    20.571662008     5.319792811   0   0   0 # h
   1404      1   2  0.100000    12.054983555    39.292584515     5.202490529   0   0   0 # h
   1405      1   4 -0.200000    27.313683071    33.977997519     9.959411473   0   0   0 # c2
   1406      1   4 -0.200000    28.166329531    33.991691192     8.652789411   0   0   0 # c2
   1407      1   2  0.100000    27.644492707    34.769734007    10.646032770   0   0   0 # h
   1408      1   2  0.100000    27.432834718    33.060098628    10.552907294   0   0   0 # h
   1409      1   2  0.100000    29.254544377    34.113851757     8.894199298   0   0   0 # h
   1410      1   2  0.100000    27.941073027    34.860626552     7.996792068   0   0   0 # h
   1411      1   4 -0.200000    24.591440642    22.636780927     9.010785231   0   0   0 # c2
   1412      1   4 -0.200000    23.347710979    22.676204149     8.089380282   0   0   0 # c2
   1413      1   2  0.100000    24.744609949    21.674251041     9.539809569   0   0   0 # h
   1414      1   2  0.100000    24.384398898    23.417029046     9.805038088   0   0   0 # h
   1415      1   2  0.100000    23.337947012    23.606122240     7.470633129   0   0   0 # h
   1416      1   2  0.100000    22.407894496    22.747604987     8.722275343   0   0   0 # h
   1417      1   4 -0.200000    17.249011176    34.895967385    13.368162065   0   0   0 # c2
   1418      1   4 -0.200000    17.978602630    36.204944615    13.161495144   0   0   0 # c2
   1419      1   2  0.100000    17.999962713    34.074325349    13.360819480   0   0   0 # h
   1420      1   2  0.100000    16.611741654    34.607749198    12.508900463   0   0   0 # h
   1421      1   2  0.100000    17.215938914    36.932337950    12.903430123   0   0   0 # h
   1422      1   2  0.100000    18.443767724    36.527123977    14.122657508   0   0   0 # h
   1423      1   4 -0.200000    28.987580033    38.225637477     7.313752520   0   0   0 # c2
   1424      1   4 -0.200000    28.814526406    39.260679656     8.447913364   0   0   0 # c2
   1425      1   2  0.100000    29.347057623    37.261244065     7.747502333   0   0   0 # h
   1426      1   2  0.100000    29.775634582    38.517859036     6.598835405   0   0   0 # h
   1427      1   2  0.100000    29.787318716    39.686409096     8.705441122   0   0   0 # h
   1428      1   2  0.100000    28.305247404    40.129982238     8.056607278   0   0   0 # h
   1429      1   4 -0.200000    21.583925321    38.148275466    17.410165894   0   0   0 # c2
   1430      1   4 -0.200000    21.790782320    39.380433995    16.505236991   0   0   0 # c2
   1431      1   2  0.100000    21.883771120    37.196193998    16.920898971   0   0   0 # h
   1432      1   2  0.100000    20.487975103    38.024721681    17.517797454   0   0   0 # h
   1433      1   2  0.100000    20.969347261    39.464947622    15.751278811   0   0   0 # h
   1434      1   2  0.100000    20.888072746    -0.544824787    17.134729391   0   1   0 # h
   1435      1   4 -0.200000    17.449332903    29.403837070    10.796108056   0   0   0 # c2
   1436      1   4 -0.200000    18.405027379    29.376053747     9.552524778   0   0   0 # c2
   1437      1   2  0.100000    18.086482753    29.607995853    11.688679925   0   0   0 # h
   1438      1   2  0.100000    16.986306048    28.417481509    10.937049882   0   0   0 # h
   1439      1   2  0.100000    17.779494308    29.207230971     8.615181045   0   0   0 # h
   1440      1   2  0.100000    19.032331115    28.492992125     9.631860520   0   0   0 # h
   1441      1   1  0.000000    26.986807915    17.143668200    24.447765561   0   0   0 # cp
   1442      1   1 -0.100000    26.709362610    17.769191975    23.261132093   0   0   0 # cp
   1443      1   1 -0.100000    25.478352149    17.629949229    22.666382659   0   0   0 # cp
   1444      1   1  0.000000    24.449931478    16.933450403    23.333304337   0   0   0 # cp
   1445      1   1 -0.100000    24.800964809    16.259648766    24.515639706   0   0   0 # cp
   1446      1   1 -0.100000    26.073583355    16.350024171    25.034993321   0   0   0 # cp
   1447      1   2  0.100000    27.392890439    18.469253905    22.835620303   0   0   0 # h
   1448      1   2  0.100000    25.291193626    18.216738182    21.793152235   0   0   0 # h
   1449      1   2  0.100000    24.067153543    15.671207822    25.039112333   0   0   0 # h
   1450      1   2  0.100000    26.257803915    15.915598070    26.009766331   0   0   0 # h
   1451      1   1 -0.100000    23.269208733    16.861179528    20.388927511   0   0   0 # cp
   1452      1   1  0.000000    22.536805474    17.351276806    21.458616872   0   0   0 # cp
   1453      1   1 -0.100000    21.400024737    18.045311217    21.160436261   0   0   0 # cp
   1454      1   1 -0.100000    21.041898447    18.327655374    19.879244618   0   0   0 # cp
   1455      1   1  0.000000    21.769318455    17.801714497    18.832299364   0   0   0 # cp
   1456      1   1 -0.100000    22.911697166    17.091138524    19.095737008   0   0   0 # cp
   1457      1   3  0.000000    22.917007641    17.202744850    22.989277338   0   0   0 # c
   1458      1   1  0.000000    22.834756633    18.615398302    23.756308902   0   0   0 # cp
   1459      1   1 -0.100000    22.648090660    18.632792371    25.130446934   0   0   0 # cp
   1460      1   1 -0.100000    22.275203063    -0.587802382    25.816172794   0   0   0 # cp
   1461      1   1  0.000000    22.530023438     0.595538005    25.149251117   0   0   0 # cp
   1462      1   1 -0.100000    22.686814539     0.583241904    23.810393313   0   0   0 # cp
   1463      1   1 -0.100000    23.042773196    19.825803829    23.101744259   0   0   0 # cp
   1464      1   1 -0.100000    22.232666528    14.760778453    23.480156049   0   0   0 # cp
   1465      1   1 -0.100000    21.697921520    13.890302269    24.403889135   0   0   0 # cp
   1466      1   1  0.000000    20.844874075    14.359863559    25.417524122   0   0   0 # cp
   1467      1   1 -0.100000    20.277523946    15.621309291    25.183277733   0   0   0 # cp
   1468      1   1 -0.100000    20.713330170    16.426921448    24.178597118   0   0   0 # cp
   1469      1   1  0.000000    21.887551458    16.089723724    23.520450726   0   0   0 # cp
   1470      1   3  0.000000    20.813537455    13.568003462    26.830882306   0   0   0 # c
   1471      1   1  0.000000    18.663489302     9.760550267    27.237769001   0   0   0 # cp
   1472      1   1 -0.100000    19.442783746    10.228519235    28.284714255   0   0   0 # cp
   1473      1   1 -0.100000    20.189288251    11.385354252    28.124789159   0   0   0 # cp
   1474      1   1  0.000000    20.107819313    12.118894794    26.919172421   0   0   0 # cp
   1475      1   1 -0.100000    19.365787723    11.584525572    25.901060247   0   0   0 # cp
   1476      1   1 -0.100000    18.649373964    10.418208975    26.064925267   0   0   0 # cp
   1477      1   1  0.000000    19.962677832    14.328272129    27.913286876   0   0   0 # cp
   1478      1   1 -0.100000    20.440072613    14.588937672    29.193045820   0   0   0 # cp
   1479      1   1 -0.100000    19.633523715    15.054092113    30.185548488   0   0   0 # cp
   1480      1   1  0.000000    18.294379268    15.326346052    29.924797156   0   0   0 # cp
   1481      1   1 -0.100000    17.844135285    15.255726652    28.636083839   0   0   0 # cp
   1482      1   1 -0.100000    18.632073348    14.647874039    27.687994860   0   0   0 # cp
   1483      1   1 -0.100000    23.095616556    12.302455794    26.873146946   0   0   0 # cp
   1484      1   1 -0.100000    24.425185916    12.230879256    27.124227556   0   0   0 # cp
   1485      1   1  0.000000    25.138214844    13.295738880    27.600421095   0   0   0 # cp
   1486      1   1 -0.100000    24.488474824    14.478169206    27.857769766   0   0   0 # cp
   1487      1   1 -0.100000    23.156264573    14.544196024    27.634626798   0   0   0 # cp
   1488      1   1  0.000000    22.388301763    13.460251769    27.189057214   0   0   0 # cp
   1489      1   2  0.100000    24.187759190    16.304163416    20.562284166   0   0   0 # h
   1490      1   2  0.100000    20.761688689    18.375230870    21.973314214   0   0   0 # h
   1491      1   2  0.100000    20.109692245    18.857302114    19.697829027   0   0   0 # h
   1492      1   2  0.100000    23.516749276    16.747064005    18.259577687   0   0   0 # h
   1493      1   2  0.100000    22.550457252    17.731420145    25.697975075   0   0   0 # h
   1494      1   2  0.100000    22.621258904    19.766188420    26.897144664   0   0   0 # h
   1495      1   2  0.100000    22.834792720     1.517426391    23.315216504   0   0   0 # h
   1496      1   2  0.100000    23.209696747    19.889380878    22.028473149   0   0   0 # h
   1497      1   2  0.100000    23.042154796    14.462723208    22.815383421   0   0   0 # h
   1498      1   2  0.100000    22.126808540    12.886257765    24.427886853   0   0   0 # h
   1499      1   2  0.100000    19.569475265    16.047126832    25.848945798   0   0   0 # h
   1500      1   2  0.100000    20.311507174    17.434169408    24.157285711   0   0   0 # h
   1501      1   2  0.100000    19.545472930     9.682237293    29.215431752   0   0   0 # h
   1502      1   2  0.100000    20.760118486    11.748037391    28.968291066   0   0   0 # h
   1503      1   2  0.100000    19.371813096    12.065917438    24.925570887   0   0   0 # h
   1504      1   2  0.100000    18.048820238    10.041944022    25.261180775   0   0   0 # h
   1505      1   2  0.100000    21.440370769    14.304280285    29.513075100   0   0   0 # h
   1506      1   2  0.100000    20.053457383    15.164666669    31.169813134   0   0   0 # h
   1507      1   2  0.100000    16.828983985    15.454028169    28.386615016   0   0   0 # h
   1508      1   2  0.100000    18.187815986    14.461997170    26.720385348   0   0   0 # h
   1509      1   2  0.100000    22.652846897    11.463502340    26.373313862   0   0   0 # h
   1510      1   2  0.100000    24.918309088    11.276692850    26.961974323   0   0   0 # h
   1511      1   2  0.100000    25.024143113    15.340089779    28.186574331   0   0   0 # h
   1512      1   2  0.100000    22.678355187    15.493176269    27.757480792   0   0   0 # h
   1513      1   1  0.000000    10.205157294    18.951328360    25.459251499   0   0   0 # cp
   1514      1   1 -0.100000    10.224070941    -0.422835107    26.252967094   0   0   0 # cp
   1515      1   1 -0.100000    11.212739149    -0.630696266    27.184580027   0   0   0 # cp
   1516      1   1  0.000000    12.322597184    18.581338112    27.199444286   0   0   0 # cp
   1517      1   1 -0.100000    11.672906547    17.511358048    26.601292191   0   0   0 # cp
   1518      1   1 -0.100000    10.635724305    17.681937359    25.727882679   0   0   0 # cp
   1519      1   2  0.100000     9.909980553     0.578740216    26.045762910   0   0   0 # h
   1520      1   2  0.100000    11.657103145     0.275355031    27.590571285   0   0   0 # h
   1521      1   2  0.100000    12.116216592    16.523008553    26.547386867   0   0   0 # h
   1522      1   2  0.100000    10.281412070    16.882476414    25.074929823   0   0   0 # h
   1523      1   1 -0.100000    13.557263766    19.215736347    29.978881567   0   0   0 # cp
   1524      1   1  0.000000    14.411367195    19.048871840    28.887343537   0   0   0 # cp
   1525      1   1 -0.100000    15.792665012    19.004444886    29.112098291   0   0   0 # cp
   1526      1   1 -0.100000    16.283438389    18.956500703    30.381828338   0   0   0 # cp
   1527      1   1  0.000000    15.432580703    18.964426048    31.461367508   0   0   0 # cp
   1528      1   1 -0.100000    14.069349820    19.181868547    31.248969788   0   0   0 # cp
   1529      1   3  0.000000    13.901277780    18.601134630    27.471299041   0   0   0 # c
   1530      1   1  0.000000    14.411791632    19.591340081    26.306156067   0   0   0 # cp
   1531      1   1 -0.100000    14.205430802    19.271551078    24.944375070   0   0   0 # cp
   1532      1   1 -0.100000    13.977938983    -0.227377475    23.952051489   0   0   0 # cp
   1533      1   1  0.000000    14.273840027     1.076630916    24.283005103   0   0   0 # cp
   1534      1   1 -0.100000    14.498862767     1.423790824    25.600193325   0   0   0 # cp
   1535      1   1 -0.100000    14.352099249     0.497265162    26.599143141   0   0   0 # cp
   1536      1   1 -0.100000    13.921458654    16.176508509    28.321964446   0   0   0 # cp
   1537      1   1 -0.100000    13.971852306    14.839023466    28.131236307   0   0   0 # cp
   1538      1   1  0.000000    14.386659614    14.309742424    26.912188010   0   0   0 # cp
   1539      1   1 -0.100000    15.043860430    15.157913581    26.025884202   0   0   0 # cp
   1540      1   1 -0.100000    15.086017438    16.528573000    26.299708919   0   0   0 # cp
   1541      1   1  0.000000    14.420452927    17.060298793    27.396261398   0   0   0 # cp
   1542      1   3  0.000000    13.866479034    12.856658315    26.470021087   0   0   0 # c
   1543      1   1  0.000000    15.682654648     9.671996754    28.673513117   0   0   0 # cp
   1544      1   1 -0.100000    14.496512695     9.442742845    28.069630223   0   0   0 # cp
   1545      1   1 -0.100000    13.807103392    10.465612014    27.500311208   0   0   0 # cp
   1546      1   1  0.000000    14.324849065    11.754132930    27.505862919   0   0   0 # cp
   1547      1   1 -0.100000    15.443525868    11.959869650    28.286863305   0   0   0 # cp
   1548      1   1 -0.100000    16.057223034    10.960201604    28.946800571   0   0   0 # cp
   1549      1   1  0.000000    14.368795810    12.189587415    25.119701687   0   0   0 # cp
   1550      1   1 -0.100000    13.509516217    11.374744462    24.382219553   0   0   0 # cp
   1551      1   1 -0.100000    13.973647269    10.616653171    23.346556808   0   0   0 # cp
   1552      1   1  0.000000    15.305073678    10.616303911    23.037272776   0   0   0 # cp
   1553      1   1 -0.100000    16.141418477    11.465146260    23.708492552   0   0   0 # cp
   1554      1   1 -0.100000    15.684237812    12.264471857    24.717829441   0   0   0 # cp
   1555      1   1 -0.100000    11.494296047    12.798308537    27.573020714   0   0   0 # cp
   1556      1   1 -0.100000    10.188041234    13.228072667    27.613494479   0   0   0 # cp
   1557      1   1  0.000000     9.620178841    13.923324860    26.553117666   0   0   0 # cp
   1558      1   1 -0.100000    10.410599291    14.214078464    25.463012335   0   0   0 # cp
   1559      1   1 -0.100000    11.724655821    13.797165447    25.440447316   0   0   0 # cp
   1560      1   1  0.000000    12.266330082    13.099118561    26.480587247   0   0   0 # cp
   1561      1   2  0.100000    12.492857000    19.246096368    29.858534798   0   0   0 # h
   1562      1   2  0.100000    16.474193660    18.941006427    28.286326042   0   0   0 # h
   1563      1   2  0.100000    17.344159650    18.787460346    30.479251912   0   0   0 # h
   1564      1   2  0.100000    13.339351411    19.143514905    32.063101352   0   0   0 # h
   1565      1   2  0.100000    13.844260503    18.305425403    24.637419174   0   0   0 # h
   1566      1   2  0.100000    14.261435040    19.869409085    22.912269733   0   0   0 # h
   1567      1   2  0.100000    14.642015164     2.460436821    25.876704353   0   0   0 # h
   1568      1   2  0.100000    14.502719215     0.882705759    27.604898281   0   0   0 # h
   1569      1   2  0.100000    13.410973465    16.525522241    29.208984604   0   0   0 # h
   1570      1   2  0.100000    13.538666021    14.167213043    28.886269012   0   0   0 # h
   1571      1   2  0.100000    15.352014921    14.865762172    25.046275831   0   0   0 # h
   1572      1   2  0.100000    15.564086477    17.156216778    25.556675074   0   0   0 # h
   1573      1   2  0.100000    14.132198321     8.448740291    27.872813112   0   0   0 # h
   1574      1   2  0.100000    12.922282493    10.249297832    26.875475082   0   0   0 # h
   1575      1   2  0.100000    15.966861945    12.917246405    28.329665206   0   0   0 # h
   1576      1   2  0.100000    17.021618917    11.175129549    29.394519206   0   0   0 # h
   1577      1   2  0.100000    12.461308337    11.270390393    24.655865182   0   0   0 # h
   1578      1   2  0.100000    13.246148588     9.987354256    22.846007375   0   0   0 # h
   1579      1   2  0.100000    17.197765887    11.445723860    23.464396353   0   0   0 # h
   1580      1   2  0.100000    16.404895684    12.787321898    25.327801308   0   0   0 # h
   1581      1   2  0.100000    11.861043192    12.272428770    28.434073192   0   0   0 # h
   1582      1   2  0.100000     9.624282478    13.015518389    28.483680416   0   0   0 # h
   1583      1   2  0.100000     9.971486807    14.769854838    24.659267843   0   0   0 # h
   1584      1   2  0.100000    12.322219739    14.108378767    24.593721835   0   0   0 # h
   1585      1   1  0.000000    14.344792609    19.155741113    34.658257643   0   0   0 # cp
   1586      1   1 -0.100000    13.827812257    17.925540345    34.997091106   0   0   0 # cp
   1587      1   1 -0.100000    12.470924586    17.797687987    35.227934833   0   0   0 # cp
   1588      1   1  0.000000    11.626891069    18.900007965    35.094872855   0   0   0 # cp
   1589      1   1 -0.100000    11.825423952    -0.270075279    34.900204793   0   0   0 # cp
   1590      1   1 -0.100000    13.145721665    -0.157714398    34.624589202   0   0   0 # cp
   1591      1   2  0.100000    14.427792554    17.023060068    34.989927608   0   0   0 # h
   1592      1   2  0.100000    12.058850973    16.806650543    35.350788827   0   0   0 # h
   1593      1   2  0.100000    11.213028793     0.606575853    34.938350421   0   0   0 # h
   1594      1   2  0.100000    13.522612820     0.833134242    34.404669809   0   0   0 # h
   1595      1   1 -0.100000     9.748124304     0.098691381    19.522681498   0   0   0 # cp
   1596      1   1  0.000000    10.028554912    19.321878489    18.795765523   0   0   0 # cp
   1597      1   1 -0.100000     9.872751933    18.157198391    19.555454502   0   0   0 # cp
   1598      1   1 -0.100000     9.924688090    18.136371274    20.914191013   0   0   0 # cp
   1599      1   1  0.000000    10.230765083    19.298473141    21.571083793   0   0   0 # cp
   1600      1   1 -0.100000     9.885438282     0.050578568    20.861002039   0   0   0 # cp
   1601      1   3  0.000000    10.022101500    18.814664896    35.148240917   0   0   0 # c
   1602      1   1  0.000000     9.259488599    17.530669070    34.536478175   0   0   0 # cp
   1603      1   1 -0.100000     9.852111780    16.609317145    33.683126458   0   0   0 # cp
   1604      1   1 -0.100000     9.160236981    15.563992371    33.165742805   0   0   0 # cp
   1605      1   1  0.000000     7.913808873    15.283654836    33.633340146   0   0   0 # cp
   1606      1   1 -0.100000     7.252449262    16.226584407    34.392850037   0   0   0 # cp
   1607      1   1 -0.100000     7.905267586    17.347630387    34.814242815   0   0   0 # cp
   1608      1   1 -0.100000     8.255838640     0.515146363    34.280204029   0   0   0 # cp
   1609      1   1 -0.100000     7.778888196     1.290091289    33.216245467   0   0   0 # cp
   1610      1   1  0.000000     8.204628374     1.055483278    31.930755724   0   0   0 # cp
   1611      1   1 -0.100000     9.083881461     0.008958174    31.719074354   0   0   0 # cp
   1612      1   1 -0.100000     9.543303993    -0.740007448    32.745603638   0   0   0 # cp
   1613      1   1  0.000000     9.107907444    -0.556781927    34.063687297   0   0   0 # cp
   1614      1   3  0.000000     7.669176884     1.851848032    30.613209328   0   0   0 # c
   1615      1   1  0.000000     4.260085478     4.590422318    30.419794878   0   0   0 # cp
   1616      1   1 -0.100000     5.188804120     4.498731926    29.422277761   0   0   0 # cp
   1617      1   1 -0.100000     6.263229597     3.677726614    29.580411982   0   0   0 # cp
   1618      1   1  0.000000     6.396471356     2.806221285    30.653504005   0   0   0 # cp
   1619      1   1 -0.100000     5.327865605     2.754530388    31.549478535   0   0   0 # cp
   1620      1   1 -0.100000     4.342013067     3.730339983    31.484469790   0   0   0 # cp
   1621      1   1  0.000000     7.231175422     0.806911849    29.483167495   0   0   0 # cp
   1622      1   1 -0.100000     7.354742996     1.078511023    28.102403227   0   0   0 # cp
   1623      1   1 -0.100000     6.483246382     0.506758571    27.190669001   0   0   0 # cp
   1624      1   1  0.000000     5.502679619    -0.352415323    27.672951514   0   0   0 # cp
   1625      1   1 -0.100000     6.001269405    19.561197965    28.958799431   0   0   0 # cp
   1626      1   1 -0.100000     6.403055845    -0.221017066    29.849043163   0   0   0 # cp
   1627      1   1 -0.100000     9.273492025     3.842144667    30.996098304   0   0   0 # cp
   1628      1   1 -0.100000    10.509778287     4.435960740    31.004336326   0   0   0 # cp
   1629      1   1  0.000000    11.551672586     3.876470855    30.293538223   0   0   0 # cp
   1630      1   1 -0.100000    11.318412492     2.746456167    29.573606659   0   0   0 # cp
   1631      1   1 -0.100000    10.096669810     2.144407788    29.585784606   0   0   0 # cp
   1632      1   1  0.000000     9.038059514     2.655906338    30.323804003   0   0   0 # cp
   1633      1   2  0.100000     9.983118345     1.020982055    19.038608111   0   0   0 # h
   1634      1   2  0.100000     9.772387720    17.217648397    19.045234346   0   0   0 # h
   1635      1   2  0.100000     9.790715663    17.208446437    21.464884933   0   0   0 # h
   1636      1   2  0.100000    10.171689900     0.954818348    21.388593677   0   0   0 # h
   1637      1   2  0.100000    10.880503202    16.687364951    33.373305163   0   0   0 # h
   1638      1   2  0.100000     9.694428837    14.834466267    32.560069036   0   0   0 # h
   1639      1   2  0.100000     6.247067271    15.999940129    34.728639013   0   0   0 # h
   1640      1   2  0.100000     7.368244522    18.081372494    35.414185785   0   0   0 # h
   1641      1   2  0.100000     7.827799677     0.673670544    35.239038256   0   0   0 # h
   1642      1   2  0.100000     7.198597485     2.158255255    33.443507445   0   0   0 # h
   1643      1   2  0.100000     9.317784684    -0.279197277    30.708125678   0   0   0 # h
   1644      1   2  0.100000    10.665464704    18.911214587    32.501507439   0   0   0 # h
   1645      1   2  0.100000     5.070860687     5.041897492    28.502663686   0   0   0 # h
   1646      1   2  0.100000     7.012890701     3.659565409    28.800127947   0   0   0 # h
   1647      1   2  0.100000     5.313482825     2.010703765    32.346596792   0   0   0 # h
   1648      1   2  0.100000     3.525300249     3.764062212    32.210132152   0   0   0 # h
   1649      1   2  0.100000     7.947617829     1.923382871    27.787209309   0   0   0 # h
   1650      1   2  0.100000     6.441345219     0.886866438    26.208016143   0   0   0 # h
   1651      1   2  0.100000     5.227433424    18.926839723    29.385385745   0   0   0 # h
   1652      1   2  0.100000     6.278145764    -0.463903445    30.882198683   0   0   0 # h
   1653      1   2  0.100000     8.519714600     4.216651648    31.656214658   0   0   0 # h
   1654      1   2  0.100000    10.644180918     5.321598200    31.594429486   0   0   0 # h
   1655      1   2  0.100000    12.118366314     2.293124373    29.011272055   0   0   0 # h
   1656      1   2  0.100000    10.044713723     1.166906194    29.101173956   0   0   0 # h
   1657      1   1  0.000000    22.426866916    18.427592822    33.660382352   0   0   0 # cp
   1658      1   1 -0.100000    22.514043894    17.673657778    32.525146983   0   0   0 # cp
   1659      1   1 -0.100000    23.715590819    17.404973587    31.940247359   0   0   0 # cp
   1660      1   1  0.000000    24.878319462    17.991460429    32.429693370   0   0   0 # cp
   1661      1   1 -0.100000    24.796676030    18.742511910    33.592329119   0   0   0 # cp
   1662      1   1 -0.100000    23.583144557    18.988183782    34.183675891   0   0   0 # cp
   1663      1   2  0.100000    21.649829445    17.249354245    32.083696410   0   0   0 # h
   1664      1   2  0.100000    23.743245474    16.705056884    31.097461802   0   0   0 # h
   1665      1   2  0.100000    25.633761257    19.207110496    34.074074370   0   0   0 # h
   1666      1   2  0.100000    23.545000101    19.568426634    35.081441296   0   0   0 # h
   1667      1   1 -0.100000    25.794199371    18.307536787    29.384669396   0   0   0 # cp
   1668      1   1  0.000000    26.519701627    17.537682936    30.291389173   0   0   0 # cp
   1669      1   1 -0.100000    27.644903069    16.908579038    29.817523771   0   0   0 # cp
   1670      1   1 -0.100000    28.103937309    17.124515110    28.547972812   0   0   0 # cp
   1671      1   1  0.000000    27.430611951    17.966420147    27.685308548   0   0   0 # cp
   1672      1   1 -0.100000    26.239787870    18.531946575    28.101865965   0   0   0 # cp
   1673      1   3  0.000000    26.338212540    17.662057900    31.883834811   0   0   0 # c
   1674      1   1  0.000000    26.521227791    16.306933111    32.748469038   0   0   0 # cp
   1675      1   1 -0.100000    26.870032533    16.361874953    34.088043191   0   0   0 # cp
   1676      1   1 -0.100000    26.956819406    15.236095413    34.851493006   0   0   0 # cp
   1677      1   1  0.000000    26.745401281    14.010377855    34.305455360   0   0   0 # cp
   1678      1   1 -0.100000    26.371084949    13.940380709    32.963732157   0   0   0 # cp
   1679      1   1 -0.100000    26.256678949    15.065597922    32.198133293   0   0   0 # cp
   1680      1   1 -0.100000    26.474627455    -0.231757463    31.738773974   0   0   0 # cp
   1681      1   1 -0.100000    27.164300921     0.889100735    32.028000212   0   0   0 # cp
   1682      1   1  0.000000    28.331965832     0.796409537    32.782495654   0   0   0 # cp
   1683      1   1 -0.100000    28.744127740    -0.491169999    33.209798318   0   0   0 # cp
   1684      1   1 -0.100000    28.457451959    18.819367817    32.869173981   0   0   0 # cp
   1685      1   1  0.000000    27.296637539    18.915482517    32.142974357   0   0   0 # cp
   1686      1   3  0.000000    28.957024385     2.120410230    33.385662198   0   0   0 # c
   1687      1   1  0.000000    30.880108353     4.716382973    30.489280810  -1   0   0 # cp
   1688      1   1 -0.100000    30.564081920     5.199843247    31.729998689  -1   0   0 # cp
   1689      1   1 -0.100000    29.834589502     4.423349924    32.606273599  -1   0   0 # cp
   1690      1   1  0.000000    29.339555077     3.174506491    32.246845080   0   0   0 # cp
   1691      1   1 -0.100000    29.595864839     2.761426000    30.937894881   0   0   0 # cp
   1692      1   1 -0.100000    30.348897925     3.532286949    30.066813507  -1   0   0 # cp
   1693      1   1  0.000000    30.375906203     1.892552343    34.054016575  -1   0   0 # cp
   1694      1   1 -0.100000    30.678899924     2.468778295    35.273243959  -1   0   0 # cp
   1695      1   1 -0.100000     1.915436865     2.381310028    35.777196054   0   0   0 # cp
   1696      1   1  0.000000     2.902409871     1.742481950    35.054757266   0   0   0 # cp
   1697      1   1 -0.100000     2.624949999     1.189063680    33.846633303   0   0   0 # cp
   1698      1   1 -0.100000     1.344162689     1.275319446    33.350919232   0   0   0 # cp
   1699      1   1 -0.100000    27.109158491     3.731985069    34.218418857   0   0   0 # cp
   1700      1   1 -0.100000    25.983841791     3.961643399    34.953931029   0   0   0 # cp
   1701      1   1  0.000000    25.857564573     3.511070369    18.041628256   0   0   0 # cp
   1702      1   1 -0.100000    26.624836164     2.411537082    18.326735482   0   0   0 # cp
   1703      1   1 -0.100000    27.462473744     1.742840914    35.460032173   0   0   0 # cp
   1704      1   1  0.000000    27.825204234     2.589625834    34.396610874   0   0   0 # cp
   1705      1   2  0.100000    24.916042055    18.854233445    29.663150386   0   0   0 # h
   1706      1   2  0.100000    28.269596797    16.335160114    30.484803623   0   0   0 # h
   1707      1   2  0.100000    29.067037829    16.713787772    28.259821099   0   0   0 # h
   1708      1   2  0.100000    25.717609366    19.252880647    27.490103223   0   0   0 # h
   1709      1   2  0.100000    26.998675977    17.307074261    34.583578175   0   0   0 # h
   1710      1   2  0.100000    27.451505198    15.749951034    18.012257914   0   0   0 # h
   1711      1   2  0.100000    26.163800895    12.984202667    32.527654207   0   0   0 # h
   1712      1   2  0.100000    25.914019029    15.010392451    31.185393742   0   0   0 # h
   1713      1   2  0.100000    25.506852063    -0.054611462    31.249507050   0   0   0 # h
   1714      1   2  0.100000    26.755163495     1.866169139    31.795007434   0   0   0 # h
   1715      1   2  0.100000    29.585016940    -0.616765732    33.913432924  -1   0   0 # h
   1716      1   2  0.100000    28.819957400    17.875451658    33.230035200   0   0   0 # h
   1717      1   2  0.100000     0.855535996     6.198662776    32.026746599   0   0   0 # h
   1718      1   2  0.100000    29.755619216     4.747243164    33.651607066  -1   0   0 # h
   1719      1   2  0.100000    29.338189144     1.770823625    30.568795639   0   0   0 # h
   1720      1   2  0.100000    30.575286911     3.186721915    29.058013880  -1   0   0 # h
   1721      1   2  0.100000    30.261691069     3.448730938    17.957457153  -1   0   0 # h
   1722      1   2  0.100000     2.363528341     3.171562979    18.876175790   0   0   0 # h
   1723      1   2  0.100000     3.401139128     0.737275433    33.209261056   0   0   0 # h
   1724      1   2  0.100000     1.213875016     0.925909379    32.340686906   0   0   0 # h
   1725      1   2  0.100000    27.316314364     4.443038332    33.443686533   0   0   0 # h
   1726      1   2  0.100000    25.448543419     4.863771351    34.757113918   0   0   0 # h
   1727      1   2  0.100000    26.344737964     1.648670604    19.047383396   0   0   0 # h
   1728      1   2  0.100000    28.007354281     0.845070781    35.645029513   0   0   0 # h
   1729      1   1  0.000000     4.711669204     0.279821744    23.121802054   0   0   0 # cp
   1730      1   1 -0.100000     6.024117979     0.143313593    22.751449200   0   0   0 # cp
   1731      1   1 -0.100000     6.913636229     1.186372889    22.813950721   0   0   0 # cp
   1732      1   1  0.000000     6.527755478     2.424177916    23.279219926   0   0   0 # cp
   1733      1   1 -0.100000     5.200461964     2.553819059    23.707776202   0   0   0 # cp
   1734      1   1 -0.100000     4.324664882     1.480674437    23.631126772   0   0   0 # cp
   1735      1   2  0.100000     6.802415141    19.636198290    22.285463645   0   0   0 # h
   1736      1   2  0.100000     7.909150324     1.012643840    22.411541213   0   0   0 # h
   1737      1   2  0.100000     4.803364847     3.530054781    23.887400918   0   0   0 # h
   1738      1   2  0.100000     3.301282619     1.647837221    23.921069360   0   0   0 # h
   1739      1   1 -0.100000     5.778269062     4.618010331    21.198402802   0   0   0 # cp
   1740      1   1  0.000000     6.961371594     3.985272758    21.476525617   0   0   0 # cp
   1741      1   1 -0.100000     7.623808015     3.395115985    20.408448044   0   0   0 # cp
   1742      1   1 -0.100000     7.089067515     3.419698245    19.133882636   0   0   0 # cp
   1743      1   1  0.000000     5.860901350     3.944059829    18.907695182   0   0   0 # cp
   1744      1   1 -0.100000     5.197292217     4.529164261    19.947297850   0   0   0 # cp
   1745      1   3  0.000000     7.437598600     3.724089310    22.962235133   0   0   0 # c
   1746      1   1  0.000000     9.030788661     3.541676713    23.055360609   0   0   0 # cp
   1747      1   1 -0.100000     9.887556382     4.243625069    22.224573911   0   0   0 # cp
   1748      1   1 -0.100000    11.187100913     3.849054023    22.040292921   0   0   0 # cp
   1749      1   1  0.000000    11.735306478     2.866013089    22.801414599   0   0   0 # cp
   1750      1   1 -0.100000    10.958671660     2.312783613    23.837614606   0   0   0 # cp
   1751      1   1 -0.100000     9.611023722     2.678062089    23.964945786   0   0   0 # cp
   1752      1   1 -0.100000     7.525834221     6.192705184    23.597100156   0   0   0 # cp
   1753      1   1 -0.100000     7.750306392     7.164731880    24.544651873   0   0   0 # cp
   1754      1   1  0.000000     7.667922635     6.913407705    25.931326027   0   0   0 # cp
   1755      1   1 -0.100000     7.153846375     5.659453447    26.264607778   0   0   0 # cp
   1756      1   1 -0.100000     7.011394982     4.668721687    25.331383057   0   0   0 # cp
   1757      1   1  0.000000     7.236279266     4.906176755    23.979272782   0   0   0 # cp
   1758      1   3  0.000000     8.490934629     7.821639100    27.006208924   0   0   0 # c
   1759      1   1  0.000000    12.347986451     6.185129086    25.833007015   0   0   0 # cp
   1760      1   1 -0.100000    12.189633498     7.571807494    25.918610818   0   0   0 # cp
   1761      1   1 -0.100000    11.037695851     8.095901276    26.448888768   0   0   0 # cp
   1762      1   1  0.000000     9.967094080     7.302943260    26.796318428   0   0   0 # cp
   1763      1   1 -0.100000    10.252452478     5.959087479    26.931708543   0   0   0 # cp
   1764      1   1 -0.100000    11.391860423     5.394346998    26.420055688   0   0   0 # cp
   1765      1   1  0.000000     8.179480966     7.620082789    28.587372052   0   0   0 # cp
   1766      1   1 -0.100000     6.879161844     7.327011698    29.005720344   0   0   0 # cp
   1767      1   1 -0.100000     6.572828922     7.210558749    30.324699440   0   0   0 # cp
   1768      1   1  0.000000     7.555300951     7.185519291    31.277086518   0   0   0 # cp
   1769      1   1 -0.100000     8.832050167     7.557119135    30.913897162   0   0   0 # cp
   1770      1   1 -0.100000     9.133188466     7.773407108    29.576651146   0   0   0 # cp
   1771      1   1 -0.100000     7.103707303    10.054653990    27.265885731   0   0   0 # cp
   1772      1   1 -0.100000     6.817548646    11.341614933    26.908964436   0   0   0 # cp
   1773      1   1  0.000000     7.435445716    11.953674279    25.879748840   0   0   0 # cp
   1774      1   1 -0.100000     8.403667286    11.279572250    25.216946174   0   0   0 # cp
   1775      1   1 -0.100000     8.728456948    10.015090242    25.572792945   0   0   0 # cp
   1776      1   1  0.000000     8.117824841     9.345407823    26.639616906   0   0   0 # cp
   1777      1   2  0.100000     5.189162795     5.013833883    22.003759081   0   0   0 # h
   1778      1   2  0.100000     8.507864227     2.777367916    20.516258691   0   0   0 # h
   1779      1   2  0.100000     7.662213226     2.961811402    18.346435102   0   0   0 # h
   1780      1   2  0.100000     4.190703027     4.910829802    19.835547279   0   0   0 # h
   1781      1   2  0.100000     9.524618615     5.056715845    21.617467443   0   0   0 # h
   1782      1   2  0.100000    11.764094369     4.288819332    21.256964399   0   0   0 # h
   1783      1   2  0.100000    11.334994921     1.577630065    24.498984572   0   0   0 # h
   1784      1   2  0.100000     8.956855186     2.226329421    24.709949593   0   0   0 # h
   1785      1   2  0.100000     7.720264547     6.417061683    22.570749959   0   0   0 # h
   1786      1   2  0.100000     8.112687411     8.075539633    24.124154532   0   0   0 # h
   1787      1   2  0.100000     7.086357533     5.365156147    27.305284971   0   0   0 # h
   1788      1   2  0.100000     6.826973207     3.649886187    25.718749219   0   0   0 # h
   1789      1   2  0.100000    13.005530197     8.245594060    25.683468991   0   0   0 # h
   1790      1   2  0.100000    10.949343483     9.145224139    26.575503598   0   0   0 # h
   1791      1   2  0.100000     9.506615567     5.294431187    27.353280409   0   0   0 # h
   1792      1   2  0.100000    11.436293177     4.318409044    26.419518425   0   0   0 # h
   1793      1   2  0.100000     6.118471663     7.211385479    28.255881175   0   0   0 # h
   1794      1   2  0.100000     5.532678018     7.126413453    30.589569784   0   0   0 # h
   1795      1   2  0.100000     9.621260479     7.555330939    31.665527205   0   0   0 # h
   1796      1   2  0.100000    10.172474546     8.010667323    29.337211220   0   0   0 # h
   1797      1   2  0.100000     6.534659200     9.659079077    28.080017296   0   0   0 # h
   1798      1   2  0.100000     6.104225791    11.923371199    27.478820714   0   0   0 # h
   1799      1   2  0.100000     8.924552634    11.768340928    24.415529819   0   0   0 # h
   1800      1   2  0.100000     9.471047323     9.538285441    24.957806629   0   0   0 # h
   1801      1   1  0.000000     1.570222210     0.463736863    21.929975050   0   0   0 # cp
   1802      1   1 -0.100000    30.711195835    -0.102806287    22.810368972  -1   0   0 # cp
   1803      1   1 -0.100000    29.841420788     0.679327660    23.506123729  -1   0   0 # cp
   1804      1   1  0.000000    29.837789447     2.060817785    23.367510040  -1   0   0 # cp
   1805      1   1 -0.100000    30.644384020     2.580320006    22.350830566  -1   0   0 # cp
   1806      1   1 -0.100000     1.484218991     1.795524839    21.629108128   0   0   0 # cp
   1807      1   2  0.100000    31.237074782    19.283164587    23.113564031  -1   0   0 # h
   1808      1   2  0.100000    29.300228147     0.276003262    24.354998260   0   0   0 # h
   1809      1   2  0.100000    30.726944919     3.642027676    22.199859842  -1   0   0 # h
   1810      1   2  0.100000     2.217640563     2.225930379    20.958425614   0   0   0 # h
   1811      1   1 -0.100000     1.480622137     3.227683332    25.669141995   0   0   0 # cp
   1812      1   1  0.000000    30.235451930     2.697344879    25.713734771  -1   0   0 # cp
   1813      1   1 -0.100000    30.017954131     1.653149773    26.602724891  -1   0   0 # cp
   1814      1   1 -0.100000     0.978474942     1.108389928    27.336625276   0   0   0 # cp
   1815      1   1  0.000000     2.259866138     1.614875552    27.264453032   0   0   0 # cp
   1816      1   1 -0.100000     2.490532511     2.707833467    26.464111201   0   0   0 # cp
   1817      1   3  0.000000    29.179839326     2.941226524    24.550203584   0   0   0 # c
   1818      1   1  0.000000    27.706793245     2.705785399    25.123462523   0   0   0 # cp
   1819      1   1 -0.100000    27.242387390     3.397349771    26.245982683   0   0   0 # cp
   1820      1   1 -0.100000    26.024779164     3.110244823    26.785035918   0   0   0 # cp
   1821      1   1  0.000000    25.240085631     2.139026289    26.267294090   0   0   0 # cp
   1822      1   1 -0.100000    25.704202312     1.421544924    25.188292182   0   0   0 # cp
   1823      1   1 -0.100000    26.889481249     1.727039724    24.587095600   0   0   0 # cp
   1824      1   1 -0.100000    29.449232685     5.542591238    24.612526018   0   0   0 # cp
   1825      1   1 -0.100000    28.870845886     6.766594239    24.382040465   0   0   0 # cp
   1826      1   1  0.000000    27.806300054     6.916157635    23.481946923   0   0   0 # cp
   1827      1   1 -0.100000    27.446584059     5.797320104    22.755389124   0   0   0 # cp
   1828      1   1 -0.100000    28.047478773     4.591393103    22.972264030   0   0   0 # cp
   1829      1   1  0.000000    28.972376566     4.413202803    23.988406242   0   0   0 # cp
   1830      1   3  0.000000    26.855037699     8.187809519    23.396701295   0   0   0 # c
   1831      1   1  0.000000    23.109911326     6.965275232    25.264404349   0   0   0 # cp
   1832      1   1 -0.100000    23.095050852     7.861834146    24.184865179   0   0   0 # cp
   1833      1   1 -0.100000    24.287229802     8.235011076    23.596204719   0   0   0 # cp
   1834      1   1  0.000000    25.484621415     7.717866781    24.038371642   0   0   0 # cp
   1835      1   1 -0.100000    25.463820604     6.884039634    25.176472410   0   0   0 # cp
   1836      1   1 -0.100000    24.305489252     6.488096477    25.761013858   0   0   0 # cp
   1837      1   1  0.000000    27.023214901     8.488287647    21.827716114   0   0   0 # cp
   1838      1   1 -0.100000    28.246449509     8.972221387    21.400413449   0   0   0 # cp
   1839      1   1 -0.100000    28.637915032     8.801167862    20.103103935   0   0   0 # cp
   1840      1   1  0.000000    27.835769593     8.259776537    19.176147275   0   0   0 # cp
   1841      1   1 -0.100000    26.582502330     7.867810186    19.528591384   0   0   0 # cp
   1842      1   1 -0.100000    26.165596361     8.019854159    20.853301278   0   0   0 # cp
   1843      1   1 -0.100000    26.715654627    10.732623291    23.731057571   0   0   0 # cp
   1844      1   1 -0.100000    26.847448025    11.909424645    24.449198260   0   0   0 # cp
   1845      1   1  0.000000    27.409280282    11.889325335    25.706571272   0   0   0 # cp
   1846      1   1 -0.100000    27.793880314    10.684546650    26.259772417   0   0   0 # cp
   1847      1   1 -0.100000    27.623142740     9.538693521    25.536259104   0   0   0 # cp
   1848      1   1  0.000000    27.160822241     9.521234587    24.243784951   0   0   0 # cp
   1849      1   2  0.100000     1.746107775     3.966513454    24.928794461   0   0   0 # h
   1850      1   2  0.100000    29.082398892     1.128156657    26.628155309   0   0   0 # h
   1851      1   2  0.100000    30.810691429     0.206842007    27.929225660  -1   0   0 # h
   1852      1   2  0.100000     3.496721723     3.091444082    26.365254927   0   0   0 # h
   1853      1   2  0.100000    27.870940559     4.153188012    26.686000556   0   0   0 # h
   1854      1   2  0.100000    25.715619695     3.645375732    27.682801324   0   0   0 # h
   1855      1   2  0.100000    25.156359209     0.552564368    24.820804727   0   0   0 # h
   1856      1   2  0.100000    27.181694190     1.164905474    23.700612704   0   0   0 # h
   1857      1   2  0.100000    30.230865299     5.490921878    25.341053780  -1   0   0 # h
   1858      1   2  0.100000    29.247895161     7.588186560    24.952434005   0   0   0 # h
   1859      1   2  0.100000    26.612629613     5.752966360    22.039218397   0   0   0 # h
   1860      1   2  0.100000    27.659513076     3.702395814    22.456313076   0   0   0 # h
   1861      1   2  0.100000    22.182843994     8.292672368    23.819884948   0   0   0 # h
   1862      1   2  0.100000    24.256380192     8.936430729    22.753060987   0   0   0 # h
   1863      1   2  0.100000    26.358568228     6.495406894    25.639950740   0   0   0 # h
   1864      1   2  0.100000    24.337029344     5.814225807    26.595740480   0   0   0 # h
   1865      1   2  0.100000    28.966423915     9.330545601    22.150610793   0   0   0 # h
   1866      1   2  0.100000    29.635977423     9.120728061    19.879602793   0   0   0 # h
   1867      1   2  0.100000    25.992599821     7.420188061    18.738636626   0   0   0 # h
   1868      1   2  0.100000    25.192313274     7.620878645    21.138587592   0   0   0 # h
   1869      1   2  0.100000    26.269725651    10.796601612    22.754493686   0   0   0 # h
   1870      1   2  0.100000    26.459412600    12.825047500    24.049833239   0   0   0 # h
   1871      1   2  0.100000    28.217218682    10.608358026    27.243499800   0   0   0 # h
   1872      1   2  0.100000    27.841098070     8.638010030    26.056687244   0   0   0 # h
   1873      1   1  0.000000    15.758248297    15.788913719    20.747818768   0   0   0 # cp
   1874      1   1 -0.100000    14.605916376    16.238904757    20.156471996   0   0   0 # cp
   1875      1   1 -0.100000    13.851989440    15.396993003    19.389261345   0   0   0 # cp
   1876      1   1  0.000000    14.213856117    14.073090370    19.281450698   0   0   0 # cp
   1877      1   1 -0.100000    15.264450336    13.620036754    20.039348802   0   0   0 # cp
   1878      1   1 -0.100000    16.017520319    14.438161393    20.811215727   0   0   0 # cp
   1879      1   2  0.100000    14.394020975    17.298238072    20.142503175   0   0   0 # h
   1880      1   2  0.100000    13.069902738    15.845359627    18.788781113   0   0   0 # h
   1881      1   2  0.100000    15.672440873    12.624804078    20.026812680   0   0   0 # h
   1882      1   2  0.100000    16.902295053    14.027370124    21.288304703   0   0   0 # h
   1883      1   1 -0.100000    15.563766755    12.817677702    34.655571332   0   0   0 # cp
   1884      1   1  0.000000    14.262498191    13.224789330    34.792215059   0   0   0 # cp
   1885      1   1 -0.100000    13.793992378    14.147788576    33.865795661   0   0   0 # cp
   1886      1   1 -0.100000    14.551554350    14.517605338    32.790375502   0   0   0 # cp
   1887      1   1  0.000000    15.774783238    13.944332660    32.583708580   0   0   0 # cp
   1888      1   1 -0.100000    16.283544681    13.102337988    33.520335963   0   0   0 # cp
   1889      1   3  0.000000    13.658990054    13.159699719    18.130097458   0   0   0 # c
   1890      1   1  0.000000    11.810119261    12.791423700    35.686398715   0   0   0 # cp
   1891      1   1 -0.100000    11.366582253    12.078500110    34.595756122   0   0   0 # cp
   1892      1   1 -0.100000    10.079690731    12.119379624    34.163976271   0   0   0 # cp
   1893      1   1  0.000000     9.149020164    12.792679533    34.905040154   0   0   0 # cp
   1894      1   1 -0.100000     9.802311861    13.872175819    18.135649169   0   0   0 # cp
   1895      1   1 -0.100000    11.123592717    13.874905817    18.518000883   0   0   0 # cp
   1896      1   1 -0.100000    14.519286561    10.664950722    17.951189092   0   0   0 # cp
   1897      1   1 -0.100000    14.305512258     9.342163036    18.181137382   0   0   0 # cp
   1898      1   1  0.000000    13.217562514     8.959837785    18.917186817   0   0   0 # cp
   1899      1   1 -0.100000    12.650197262     9.907251412    19.764628648   0   0   0 # cp
   1900      1   1 -0.100000    12.939225315    11.233019701    19.608285301   0   0   0 # cp
   1901      1   1  0.000000    13.766983521    11.648055322    18.580860579   0   0   0 # cp
   1902      1   3  0.000000    12.507563195     7.546766458    18.623841568   0   0   0 # c
   1903      1   1  0.000000     8.318108672     7.532946137    34.730071712   0   0   0 # cp
   1904      1   1 -0.100000     8.557367225     6.491854638    35.617270958   0   0   0 # cp
   1905      1   1 -0.100000    10.010234117     6.879961394    18.445291377   0   0   0 # cp
   1906      1   1  0.000000    10.982117852     7.849812931    18.267994797   0   0   0 # cp
   1907      1   1 -0.100000    10.380836951     8.522027777    35.392337116   0   0   0 # cp
   1908      1   1 -0.100000     9.217877023     8.566465374    34.658794906   0   0   0 # cp
   1909      1   1  0.000000    12.808420172     6.905705493    20.048124087   0   0   0 # cp
   1910      1   1 -0.100000    14.006669897     6.297255817    20.291324849   0   0   0 # cp
   1911      1   1 -0.100000    14.378952088     5.987350419    21.572695580   0   0   0 # cp
   1912      1   1  0.000000    13.598073140     6.317795539    22.652234750   0   0   0 # cp
   1913      1   1 -0.100000    12.357943591     6.858320652    22.424435509   0   0   0 # cp
   1914      1   1 -0.100000    11.953505247     7.125555793    21.125872383   0   0   0 # cp
   1915      1   1 -0.100000    12.619823098     4.909935249    35.255335214   0   0   0 # cp
   1916      1   1 -0.100000    13.007857578     4.177553676    34.141232165   0   0   0 # cp
   1917      1   1  0.000000    13.295429618     4.795250506    32.931317328   0   0   0 # cp
   1918      1   1 -0.100000    13.255857140     6.189518281    32.901409723   0   0   0 # cp
   1919      1   1 -0.100000    12.881147432     6.907902212    34.029302506   0   0   0 # cp
   1920      1   1  0.000000    12.638096534     6.282914970    35.245485404   0   0   0 # cp
   1921      1   2  0.100000    16.066097823    12.280202566    35.436034455   0   0   0 # h
   1922      1   2  0.100000    12.833298893    14.604704161    33.958742049   0   0   0 # h
   1923      1   2  0.100000    14.205644986    15.254547247    32.087278159   0   0   0 # h
   1924      1   2  0.100000    17.300477357    12.712859462    33.415390715   0   0   0 # h
   1925      1   2  0.100000    12.071382730    11.447239946    34.065478172   0   0   0 # h
   1926      1   2  0.100000     9.768570643    11.512377991    33.319578927   0   0   0 # h
   1927      1   2  0.100000     9.088215649    14.400229637    18.723772367   0   0   0 # h
   1928      1   2  0.100000    11.379420736    14.411219519    19.426332448   0   0   0 # h
   1929      1   2  0.100000    14.979484309    10.453526722    35.092007456   0   0   0 # h
   1930      1   2  0.100000    14.615216236     8.216646875    35.515370197   0   0   0 # h
   1931      1   2  0.100000    11.804450858     9.663323037    20.386778462   0   0   0 # h
   1932      1   2  0.100000    12.370586106    11.946615855    20.205541959   0   0   0 # h
   1933      1   2  0.100000     7.927170867     5.653682532    35.609749285   0   0   0 # h
   1934      1   2  0.100000    10.203996854     6.042528753    19.080872750   0   0   0 # h
   1935      1   2  0.100000    11.141727631     9.265254361    35.173134073   0   0   0 # h
   1936      1   2  0.100000     9.035315521     9.392793043    33.982918856   0   0   0 # h
   1937      1   2  0.100000    14.708270712     6.179098703    19.474865148   0   0   0 # h
   1938      1   2  0.100000    15.393649302     5.557922441    21.719368204   0   0   0 # h
   1939      1   2  0.100000    11.718679565     7.142078022    23.256117644   0   0   0 # h
   1940      1   2  0.100000    11.046381032     7.650765208    20.968454511   0   0   0 # h
   1941      1   2  0.100000    12.589531437     4.783376511    18.235042706   0   0   0 # h
   1942      1   2  0.100000    12.985057917     3.097206829    34.189764865   0   0   0 # h
   1943      1   2  0.100000    13.449879708     6.717507327    31.993615420   0   0   0 # h
   1944      1   2  0.100000    12.848675483     8.004842717    33.943161441   0   0   0 # h
   1945      1   1  0.000000    18.637952972    15.920293691    19.401439292   0   0   0 # cp
   1946      1   1 -0.100000    19.567998807    15.401703825    20.273774278   0   0   0 # cp
   1947      1   1 -0.100000    20.302801272    14.327268049    19.901988725   0   0   0 # cp
   1948      1   1  0.000000    20.128568294    13.727547978    18.639780351   0   0   0 # cp
   1949      1   1 -0.100000    19.023325328    13.925597107    35.649327612   0   0   0 # cp
   1950      1   1 -0.100000    18.561006878    15.421050221    18.119710386   0   0   0 # cp
   1951      1   2  0.100000    19.718819616    15.825846302    21.239234741   0   0   0 # h
   1952      1   2  0.100000    20.976806358    13.893702379    20.655767817   0   0   0 # h
   1953      1   2  0.100000    18.897175248    13.535702501    34.668286541   0   0   0 # h
   1954      1   2  0.100000    17.621290649    15.439429095    35.323746621   0   0   0 # h
   1955      1   1 -0.100000    18.585476209    11.283947292    19.174535488   0   0   0 # cp
   1956      1   1  0.000000    19.938114741    11.504936890    19.467164387   0   0   0 # cp
   1957      1   1 -0.100000    20.381738828    11.112644171    20.727581886   0   0   0 # cp
   1958      1   1 -0.100000    19.545846608    10.374340454    21.559264021   0   0   0 # cp
   1959      1   1  0.000000    18.250394659    10.107833213    21.178882269   0   0   0 # cp
   1960      1   1 -0.100000    17.781526838    10.534108983    19.984368953   0   0   0 # cp
   1961      1   3  0.000000    20.817558599    12.328601043    18.414846509   0   0   0 # c
   1962      1   1  0.000000    22.377672310    12.487941307    18.672553355   0   0   0 # cp
   1963      1   1 -0.100000    23.202515081    11.460875885    19.141583396   0   0   0 # cp
   1964      1   1 -0.100000    24.556503671    11.601137137    19.236857922   0   0   0 # cp
   1965      1   1  0.000000    25.137506024    12.786749643    18.796660961   0   0   0 # cp
   1966      1   1 -0.100000    24.360232405    13.807031223    18.391027878   0   0   0 # cp
   1967      1   1 -0.100000    23.011463760    13.666094770    18.307214950   0   0   0 # cp
   1968      1   1 -0.100000    20.116047297     9.898020791    34.762307454   0   0   0 # cp
   1969      1   1 -0.100000    20.617473937     9.072781350    33.831410870   0   0   0 # cp
   1970      1   1  0.000000    21.734677933     9.437951383    33.104494895   0   0   0 # cp
   1971      1   1 -0.100000    21.963542861    10.802848361    32.985939001   0   0   0 # cp
   1972      1   1 -0.100000    21.297443119    11.709549829    33.810994900   0   0   0 # cp
   1973      1   1  0.000000    20.542337958    11.226834972    34.869580839   0   0   0 # cp
   1974      1   3  0.000000    22.737522825     8.296148860    32.618988809   0   0   0 # c
   1975      1   1  0.000000    26.838020282     8.617017657    33.951936726   0   0   0 # cp
   1976      1   1 -0.100000    26.542275774     7.879516494    32.829774742   0   0   0 # cp
   1977      1   1 -0.100000    25.289745327     7.930563939    32.285707057   0   0   0 # cp
   1978      1   1  0.000000    24.276217230     8.614701788    32.938301738   0   0   0 # cp
   1979      1   1 -0.100000    24.616153008     9.384063871    34.042196803   0   0   0 # cp
   1980      1   1 -0.100000    25.875329584     9.385232616    34.535403650   0   0   0 # cp
   1981      1   1  0.000000    22.403047797     8.112071252    31.092089179   0   0   0 # cp
   1982      1   1 -0.100000    21.345457893     7.310291538    30.670159138   0   0   0 # cp
   1983      1   1 -0.100000    21.120697506     7.096393338    29.336853045   0   0   0 # cp
   1984      1   1  0.000000    21.831655327     7.765938963    28.389838591   0   0   0 # cp
   1985      1   1 -0.100000    22.770238221     8.713060874    28.811589544   0   0   0 # cp
   1986      1   1 -0.100000    23.066262773     8.853956887    30.141672062   0   0   0 # cp
   1987      1   1 -0.100000    22.785878965     5.649015983    32.917885769   0   0   0 # cp
   1988      1   1 -0.100000    22.822961077     4.512696436    33.695662580   0   0   0 # cp
   1989      1   1  0.000000    22.718737547     4.588270967    35.060846239   0   0   0 # cp
   1990      1   1 -0.100000    22.517085063     5.804580747    35.651476661   0   0   0 # cp
   1991      1   1 -0.100000    22.619201789     6.945148899    34.892862208   0   0   0 # cp
   1992      1   1  0.000000    22.703366419     6.914416214    33.504218092   0   0   0 # cp
   1993      1   2  0.100000    18.215715793    11.591385380    18.218208485   0   0   0 # h
   1994      1   2  0.100000    21.363183589    11.380859247    21.113515349   0   0   0 # h
   1995      1   2  0.100000    19.884244695    10.115125237    22.548543115   0   0   0 # h
   1996      1   2  0.100000    16.775392188    10.309409102    19.640700130   0   0   0 # h
   1997      1   2  0.100000    22.766720724    10.499691038    19.402513816   0   0   0 # h
   1998      1   2  0.100000    25.185944527    10.773191866    19.526442334   0   0   0 # h
   1999      1   2  0.100000    24.798879619    14.739640922    18.042344606   0   0   0 # h
   2000      1   2  0.100000    22.168809910    14.067616247    35.748004799   0   0   0 # h
   2001      1   2  0.100000    19.559970052     9.348178385    35.504087687   0   0   0 # h
   2002      1   2  0.100000    20.340799989     8.052010226    33.881197182   0   0   0 # h
   2003      1   2  0.100000    22.771695122    11.165983428    32.328867134   0   0   0 # h
   2004      1   2  0.100000    21.656477759    12.723996950    33.769804786   0   0   0 # h
   2005      1   2  0.100000    27.281258627     7.243796618    32.377041659   0   0   0 # h
   2006      1   2  0.100000    25.007031578     7.194493958    31.514019220   0   0   0 # h
   2007      1   2  0.100000    23.867181180     9.864126098    34.666316579   0   0   0 # h
   2008      1   2  0.100000    26.090796446     9.901895445    35.463613922   0   0   0 # h
   2009      1   2  0.100000    20.720597581     6.777501606    31.354631386   0   0   0 # h
   2010      1   2  0.100000    20.330006928     6.406161913    29.077355325   0   0   0 # h
   2011      1   2  0.100000    23.290685618     9.302178722    28.075002847   0   0   0 # h
   2012      1   2  0.100000    23.854330097     9.501895578    30.437882711   0   0   0 # h
   2013      1   2  0.100000    22.918452080     5.511032387    31.857150781   0   0   0 # h
   2014      1   2  0.100000    22.989158422     3.553507827    33.213559155   0   0   0 # h
   2015      1   2  0.100000    22.772567778     6.297618621    18.847163623   0   0   0 # h
   2016      1   2  0.100000    22.619182531     7.862272649    35.454480462   0   0   0 # h
   2017      1   4 -0.200000    16.892341810    16.722714209    21.136796718   0   0   0 # c2
   2018      1   4 -0.200000    17.756304991    17.070390319    19.890168953   0   0   0 # c2
   2019      1   2  0.100000    16.439294781    17.629055947    21.582903565   0   0   0 # h
   2020      1   2  0.100000    17.535162133    16.307793677    21.931407749   0   0   0 # h
   2021      1   2  0.100000    18.331345689    17.940006664    20.169008118   0   0   0 # h
   2022      1   2  0.100000    17.092916540    17.415824696    19.090364385   0   0   0 # h
   2023      1   4 -0.200000    21.352118075     7.714654372    26.919530596   0   0   0 # c2
   2024      1   4 -0.200000    21.834606055     6.583866081    26.013706255   0   0   0 # c2
   2025      1   2  0.100000    20.276176294     7.643580065    26.947468239   0   0   0 # h
   2026      1   2  0.100000    21.547277773     8.709079398    26.484706259   0   0   0 # h
   2027      1   2  0.100000    22.006520572     5.674607748    26.586786107   0   0   0 # h
   2028      1   2  0.100000    21.027140313     6.335257361    25.276761384   0   0   0 # h
   2029      1   4 -0.200000    28.170918181     8.534018123    34.640886160   0   0   0 # c2
   2030      1   4 -0.200000    28.194412431     7.453744392    35.755526472   0   0   0 # c2
   2031      1   2  0.100000    28.938736384     8.276236737    33.885853456   0   0   0 # h
   2032      1   2  0.100000    28.488862980     9.498159991    35.120661449   0   0   0 # h
   2033      1   2  0.100000    27.783973795     6.529346231    35.366011260   0   0   0 # h
   2034      1   2  0.100000    29.530285518     7.625643369    18.024256773   0   0   0 # h
   2035      1   4 -0.200000     7.170489301     6.598298930    32.659641661   0   0   0 # c2
   2036      1   4 -0.200000     7.080724264     7.541936812    33.844484254   0   0   0 # c2
   2037      1   2  0.100000     6.149307880     6.104880974    32.608959911   0   0   0 # h
   2038      1   2  0.100000     7.821259667     5.783764715    32.908035959   0   0   0 # h
   2039      1   2  0.100000     6.195434966     7.272001724    34.443889961   0   0   0 # h
   2040      1   2  0.100000     6.839186020     8.551606201    33.500099081   0   0   0 # h
   2041      1   4 -0.200000    14.316198197     6.224939964    24.044818790   0   0   0 # c2
   2042      1   4 -0.200000    13.588833863     5.541252921    25.222139710   0   0   0 # c2
   2043      1   2  0.100000    15.260941610     5.668420550    23.898862515   0   0   0 # h
   2044      1   2  0.100000    14.655099324     7.238864339    24.359117271   0   0   0 # h
   2045      1   2  0.100000    13.390281045     4.493197465    24.918407389   0   0   0 # h
   2046      1   2  0.100000    14.273243001     5.436207306    26.068865191   0   0   0 # h
   2047      1   4 -0.200000     4.068188317    19.622204561    22.737301291   0   0   0 # c2
   2048      1   4 -0.200000     2.775212551    -0.344058708    21.520939306   0   0   0 # c2
   2049      1   2  0.100000     4.580781092    18.685850617    22.484250719   0   0   0 # h
   2050      1   2  0.100000     3.447202983    19.370886603    23.624142361   0   0   0 # h
   2051      1   2  0.100000     2.844978098    19.189807650    20.978125234   0   0   0 # h
   2052      1   2  0.100000     3.432184652     0.194028042    20.766802038   0   0   0 # h
   2053      1   4 -0.200000    24.583590960     3.764417326    18.864356018   0   0   0 # c2
   2054      1   4 -0.200000    23.241093394     3.784003849    18.049687191   0   0   0 # c2
   2055      1   2  0.100000    24.480845244     3.043301940    19.694247278   0   0   0 # h
   2056      1   2  0.100000    24.745684412     4.702291832    19.402692904   0   0   0 # h
   2057      1   2  0.100000    22.370153699     3.687506689    18.748486436   0   0   0 # h
   2058      1   2  0.100000    22.947689035     2.413436109    35.379442819   0   0   0 # h
   2059      1   4 -0.200000    26.915093520    12.726906639    35.134809358   0   0   0 # c2
   2060      1   4 -0.200000    26.613344044    12.999281956    18.681149553   0   0   0 # c2
   2061      1   2  0.100000    26.483435753    11.880577479    34.566027605   0   0   0 # h
   2062      1   2  0.100000    27.981025895    12.497996712    35.164716962   0   0   0 # h
   2063      1   2  0.100000    26.864622534    13.899178558    19.290046895   0   0   0 # h
   2064      1   2  0.100000    27.182063276    12.213482835    19.247065907   0   0   0 # h
   2065      1   4 -0.200000     4.332998595     1.792090716    35.562828372   0   0   0 # c2
   2066      1   4 -0.200000     4.877234464     3.246868021    35.511609360   0   0   0 # c2
   2067      1   2  0.100000     4.606331972     1.786591811    18.673448793   0   0   0 # h
   2068      1   2  0.100000     4.994718485     1.119587053    34.945334832   0   0   0 # h
   2069      1   2  0.100000     5.560588896     3.358895646    34.663093005   0   0   0 # h
   2070      1   2  0.100000     4.079141282     3.976862649    35.334670956   0   0   0 # h
   2071      1   4 -0.200000    13.653197474     3.978914486    31.679496027   0   0   0 # c2
   2072      1   4 -0.200000    12.987070058     4.407664205    30.361233280   0   0   0 # c2
   2073      1   2  0.100000    14.746900520     3.974675756    31.607323783   0   0   0 # h
   2074      1   2  0.100000    13.372884156     2.915873100    31.852673594   0   0   0 # h
   2075      1   2  0.100000    13.545404116     3.964046379    29.539580043   0   0   0 # h
   2076      1   2  0.100000    13.044411349     5.500624586    30.191816549   0   0   0 # h
   2077      1   4 -0.200000     7.362516532    13.904592865    33.360948129   0   0   0 # c2
   2078      1   4 -0.200000     7.678313790    12.840271215    34.439233688   0   0   0 # c2
   2079      1   2  0.100000     6.291137438    14.015331204    33.154997557   0   0   0 # h
   2080      1   2  0.100000     7.736887393    13.503499736    32.404979301   0   0   0 # h
   2081      1   2  0.100000     7.366274502    11.854198693    34.015870947   0   0   0 # h
   2082      1   2  0.100000     7.011850787    13.029566818    35.312643199   0   0   0 # h
   2083      1   4 -0.200000     4.063850275    -0.164334342    27.196220712   0   0   0 # c2
   2084      1   4 -0.200000     3.414891257     0.999079961    27.989578132   0   0   0 # c2
   2085      1   2  0.100000     4.099531509     0.104736233    26.099310058   0   0   0 # h
   2086      1   2  0.100000     3.865844199    19.320037055    27.244753412   0   0   0 # h
   2087      1   2  0.100000     4.137288411     1.807152780    28.176366346   0   0   0 # h
   2088      1   2  0.100000     3.105767491     0.650573897    28.982618062   0   0   0 # h
   2089      1   4 -0.200000     3.210195190     5.710319642    30.373411227   0   0   0 # c2
   2090      1   4 -0.200000     1.907359176     5.414924511    29.629481945   0   0   0 # c2
   2091      1   2  0.100000     3.094524922     6.081453938    31.406208572   0   0   0 # h
   2092      1   2  0.100000     3.625659692     6.571758420    29.793884227   0   0   0 # h
   2093      1   2  0.100000     2.091089908     4.859981335    28.714703231   0   0   0 # h
   2094      1   2  0.100000     1.461436979     6.387645992    29.320197912   0   0   0 # h
   2095      1   4 -0.200000     8.139083960    14.349152449    26.587323370   0   0   0 # c2
   2096      1   4 -0.200000     7.257207548    13.481325916    25.644427926   0   0   0 # c2
   2097      1   2  0.100000     7.739286190    14.256478614    27.604002844   0   0   0 # h
   2098      1   2  0.100000     8.070135460    15.416574552    26.331228311   0   0   0 # h
   2099      1   2  0.100000     7.437846431    13.761992882    24.593005486   0   0   0 # h
   2100      1   2  0.100000     6.198682295    13.720460806    25.832827927   0   0   0 # h
   2101      1   4 -0.200000    14.292701818     2.144523076    23.191646161   0   0   0 # c2
   2102      1   4 -0.200000    13.078830041     2.272550452    22.243378094   0   0   0 # c2
   2103      1   2  0.100000    15.201525957     2.018169749    22.586867830   0   0   0 # h
   2104      1   2  0.100000    14.485069785     3.164596865    23.627545023   0   0   0 # h
   2105      1   2  0.100000    12.830354586     1.324592968    21.761095581   0   0   0 # h
   2106      1   2  0.100000    13.426294850     2.888649424    21.400055274   0   0   0 # h
   2107      1   4 -0.200000    15.806298115     9.519280414    22.110316116   0   0   0 # c2
   2108      1   4 -0.200000    17.336596364     9.224294214    22.058738929   0   0   0 # c2
   2109      1   2  0.100000    15.361289233     9.672958857    21.094890253   0   0   0 # h
   2110      1   2  0.100000    15.317954765     8.600889680    22.426942734   0   0   0 # h
   2111      1   2  0.100000    17.471198417     8.175847700    21.736739687   0   0   0 # h
   2112      1   2  0.100000    17.729269025     9.175190819    23.080253765   0   0   0 # h
   2113      1   4 -0.200000    15.768980437    19.294750625    34.106131024   0   0   0 # c2
   2114      1   4 -0.200000    16.017647303    18.510421768    32.820999456   0   0   0 # c2
   2115      1   2  0.100000    15.606879162    -0.033254299    33.864542049   0   0   0 # h
   2116      1   2  0.100000    16.490097741    18.982985109    34.888922284   0   0   0 # h
   2117      1   2  0.100000    17.133836213    18.389227951    32.713367897   0   0   0 # h
   2118      1   2  0.100000    15.690695002    17.477562919    32.960329495   0   0   0 # h
   2119      1   4 -0.200000     9.542217702    19.169291566    24.102664038   0   0   0 # c2
   2120      1   4 -0.200000    10.639675299    19.264013135    23.006827909   0   0   0 # c2
   2121      1   2  0.100000     8.849733699    18.327081877    23.839047306   0   0   0 # h
   2122      1   2  0.100000     8.508231879    -0.335615734    24.138302441   0   0   0 # h
   2123      1   2  0.100000    10.846324457    -0.258087860    23.228538176   0   0   0 # h
   2124      1   2  0.100000    11.357500339    18.462834646    23.111235894   0   0   0 # h
   2125      1   4 -0.200000    26.616199855    13.148247651    27.868156838   0   0   0 # c2
   2126      1   4 -0.200000    27.468846316    13.161941324    26.561534776   0   0   0 # c2
   2127      1   2  0.100000    26.947009491    13.939984139    28.554778135   0   0   0 # h
   2128      1   2  0.100000    26.735351502    12.230348759    28.461652659   0   0   0 # h
   2129      1   2  0.100000    28.557061161    13.284101889    26.802944664   0   0   0 # h
   2130      1   2  0.100000    27.243589811    14.030876684    25.905537433   0   0   0 # h
   2131      1   4 -0.200000    23.893957426     1.807031059    26.919530596   0   0   0 # c2
   2132      1   4 -0.200000    22.650227764     1.846454280    25.998125647   0   0   0 # c2
   2133      1   2  0.100000    24.047126733     0.844501173    27.448554934   0   0   0 # h
   2134      1   2  0.100000    23.686915683     2.587279177    27.713783453   0   0   0 # h
   2135      1   2  0.100000    22.640463796     2.776372372    25.379378495   0   0   0 # h
   2136      1   2  0.100000    21.710411280     1.917855119    26.631020708   0   0   0 # h
   2137      1   4 -0.200000    16.551527960    14.066217517    31.276907431   0   0   0 # c2
   2138      1   4 -0.200000    17.281119414    15.375194746    31.070240509   0   0   0 # c2
   2139      1   2  0.100000    17.302479498    13.244575481    31.269564845   0   0   0 # h
   2140      1   2  0.100000    15.914258438    13.777999329    30.417645828   0   0   0 # h
   2141      1   2  0.100000    16.518455699    16.102588082    30.812175489   0   0   0 # h
   2142      1   2  0.100000    17.746284508    15.697374108    32.031402873   0   0   0 # h
   2143      1   4 -0.200000    28.290096818    17.395887609    25.222497885   0   0   0 # c2
   2144      1   4 -0.200000    28.117043190    18.430929788    26.356658729   0   0   0 # c2
   2145      1   2  0.100000    28.649574407    16.431494197    25.656247698   0   0   0 # h
   2146      1   2  0.100000    29.078151366    17.688109168    24.507580770   0   0   0 # h
   2147      1   2  0.100000    29.089835500    18.856659227    26.614186488   0   0   0 # h
   2148      1   2  0.100000    27.607764188    19.300232370    25.965352643   0   0   0 # h
   2149      1   4 -0.200000    20.886442105    17.318525598    35.318911260   0   0   0 # c2
   2150      1   4 -0.200000    21.093299104    18.550684126    34.413982357   0   0   0 # c2
   2151      1   2  0.100000    21.186287904    16.366444130    34.829644337   0   0   0 # h
   2152      1   2  0.100000    19.790491887    17.194971813    35.426542820   0   0   0 # h
   2153      1   2  0.100000    20.271864045    18.635197754    33.660024177   0   0   0 # h
   2154      1   2  0.100000    21.024300908    19.450713436    35.043474756   0   0   0 # h
   2155      1   4 -0.200000    16.751849687     8.574087201    28.704853422   0   0   0 # c2
   2156      1   4 -0.200000    17.707544164     8.546303879    27.461270143   0   0   0 # c2
   2157      1   2  0.100000    17.388999537     8.778245984    29.597425291   0   0   0 # h
   2158      1   2  0.100000    16.288822832     7.587731641    28.845795248   0   0   0 # h
   2159      1   2  0.100000    17.082011092     8.377481102    26.523926411   0   0   0 # h
   2160      1   2  0.100000    18.334847900     7.663242257    27.540605885   0   0   0 # h
   2161      1   1  0.000000    27.403663603    37.556312245    24.447765561   0   0   0 # cp
   2162      1   1 -0.100000    27.126218298    38.181836021    23.261132093   0   0   0 # cp
   2163      1   1 -0.100000    25.895207837    38.042593275    22.666382659   0   0   0 # cp
   2164      1   1  0.000000    24.866787166    37.346094449    23.333304337   0   0   0 # cp
   2165      1   1 -0.100000    25.217820498    36.672292812    24.515639706   0   0   0 # cp
   2166      1   1 -0.100000    26.490439043    36.762668217    25.034993321   0   0   0 # cp
   2167      1   2  0.100000    27.809746127    38.881897951    22.835620303   0   0   0 # h
   2168      1   2  0.100000    25.708049315    38.629382228    21.793152235   0   0   0 # h
   2169      1   2  0.100000    24.484009231    36.083851868    25.039112333   0   0   0 # h
   2170      1   2  0.100000    26.674659603    36.328242116    26.009766331   0   0   0 # h
   2171      1   1 -0.100000    23.686064422    37.273823574    20.388927511   0   0   0 # cp
   2172      1   1  0.000000    22.953661162    37.763920852    21.458616872   0   0   0 # cp
   2173      1   1 -0.100000    21.816880425    38.457955263    21.160436261   0   0   0 # cp
   2174      1   1 -0.100000    21.458754135    38.740299420    19.879244618   0   0   0 # cp
   2175      1   1  0.000000    22.186174143    38.214358543    18.832299364   0   0   0 # cp
   2176      1   1 -0.100000    23.328552855    37.503782570    19.095737008   0   0   0 # cp
   2177      1   3  0.000000    23.333863330    37.615388896    22.989277338   0   0   0 # c
   2178      1   1  0.000000    23.251612321    39.028042348    23.756308902   0   0   0 # cp
   2179      1   1 -0.100000    23.064946348    39.045436417    25.130446934   0   0   0 # cp
   2180      1   1 -0.100000    22.692058751    19.824841664    25.816172794   0   0   0 # cp
   2181      1   1  0.000000    22.946879126    21.008182051    25.149251117   0   0   0 # cp
   2182      1   1 -0.100000    23.103670228    20.995885950    23.810393313   0   0   0 # cp
   2183      1   1 -0.100000    22.625917507    -0.586840217    23.101744259   0   1   0 # cp
   2184      1   1 -0.100000    22.649522216    35.173422499    23.480156049   0   0   0 # cp
   2185      1   1 -0.100000    22.114777208    34.302946315    24.403889135   0   0   0 # cp
   2186      1   1  0.000000    21.261729764    34.772507605    25.417524122   0   0   0 # cp
   2187      1   1 -0.100000    20.694379634    36.033953337    25.183277733   0   0   0 # cp
   2188      1   1 -0.100000    21.130185859    36.839565494    24.178597118   0   0   0 # cp
   2189      1   1  0.000000    22.304407147    36.502367770    23.520450726   0   0   0 # cp
   2190      1   3  0.000000    21.230393143    33.980647508    26.830882306   0   0   0 # c
   2191      1   1  0.000000    19.080344990    30.173194313    27.237769001   0   0   0 # cp
   2192      1   1 -0.100000    19.859639434    30.641163281    28.284714255   0   0   0 # cp
   2193      1   1 -0.100000    20.606143940    31.797998298    28.124789159   0   0   0 # cp
   2194      1   1  0.000000    20.524675001    32.531538840    26.919172421   0   0   0 # cp
   2195      1   1 -0.100000    19.782643412    31.997169618    25.901060247   0   0   0 # cp
   2196      1   1 -0.100000    19.066229652    30.830853021    26.064925267   0   0   0 # cp
   2197      1   1  0.000000    20.379533520    34.740916175    27.913286876   0   0   0 # cp
   2198      1   1 -0.100000    20.856928301    35.001581718    29.193045820   0   0   0 # cp
   2199      1   1 -0.100000    20.050379404    35.466736159    30.185548488   0   0   0 # cp
   2200      1   1  0.000000    18.711234957    35.738990098    29.924797156   0   0   0 # cp
   2201      1   1 -0.100000    18.260990973    35.668370698    28.636083839   0   0   0 # cp
   2202      1   1 -0.100000    19.048929036    35.060518085    27.687994860   0   0   0 # cp
   2203      1   1 -0.100000    23.512472244    32.715099840    26.873146946   0   0   0 # cp
   2204      1   1 -0.100000    24.842041605    32.643523302    27.124227556   0   0   0 # cp
   2205      1   1  0.000000    25.555070532    33.708382926    27.600421095   0   0   0 # cp
   2206      1   1 -0.100000    24.905330513    34.890813252    27.857769766   0   0   0 # cp
   2207      1   1 -0.100000    23.573120262    34.956840069    27.634626798   0   0   0 # cp
   2208      1   1  0.000000    22.805157451    33.872895815    27.189057214   0   0   0 # cp
   2209      1   2  0.100000    24.604614879    36.716807462    20.562284166   0   0   0 # h
   2210      1   2  0.100000    21.178544377    38.787874916    21.973314214   0   0   0 # h
   2211      1   2  0.100000    20.526547934    39.269946160    19.697829027   0   0   0 # h
   2212      1   2  0.100000    23.933604964    37.159708051    18.259577687   0   0   0 # h
   2213      1   2  0.100000    22.967312941    38.144064191    25.697975075   0   0   0 # h
   2214      1   2  0.100000    22.204403216    -0.646455626    26.897144664   0   1   0 # h
   2215      1   2  0.100000    23.251648408    21.930070437    23.315216504   0   0   0 # h
   2216      1   2  0.100000    22.792841058    -0.523263168    22.028473149   0   1   0 # h
   2217      1   2  0.100000    23.459010485    34.875367254    22.815383421   0   0   0 # h
   2218      1   2  0.100000    22.543664228    33.298901811    24.427886853   0   0   0 # h
   2219      1   2  0.100000    19.986330953    36.459770878    25.848945798   0   0   0 # h
   2220      1   2  0.100000    20.728362862    37.846813454    24.157285711   0   0   0 # h
   2221      1   2  0.100000    19.962328618    30.094881339    29.215431752   0   0   0 # h
   2222      1   2  0.100000    21.176974174    32.160681436    28.968291066   0   0   0 # h
   2223      1   2  0.100000    19.788668785    32.478561484    24.925570887   0   0   0 # h
   2224      1   2  0.100000    18.465675926    30.454588068    25.261180775   0   0   0 # h
   2225      1   2  0.100000    21.857226457    34.716924330    29.513075100   0   0   0 # h
   2226      1   2  0.100000    20.470313071    35.577310715    31.169813134   0   0   0 # h
   2227      1   2  0.100000    17.245839674    35.866672215    28.386615016   0   0   0 # h
   2228      1   2  0.100000    18.604671675    34.874641216    26.720385348   0   0   0 # h
   2229      1   2  0.100000    23.069702586    31.876146386    26.373313862   0   0   0 # h
   2230      1   2  0.100000    25.335164777    31.689336896    26.961974323   0   0   0 # h
   2231      1   2  0.100000    25.440998802    35.752733825    28.186574331   0   0   0 # h
   2232      1   2  0.100000    23.095210876    35.905820315    27.757480792   0   0   0 # h
   2233      1   1  0.000000    10.622012982    39.363972406    25.459251499   0   0   0 # cp
   2234      1   1 -0.100000    10.640926630    19.989808939    26.252967094   0   0   0 # cp
   2235      1   1 -0.100000    11.629594838    19.781947780    27.184580027   0   0   0 # cp
   2236      1   1  0.000000    12.739452873    38.993982158    27.199444286   0   0   0 # cp
   2237      1   1 -0.100000    12.089762235    37.924002094    26.601292191   0   0   0 # cp
   2238      1   1 -0.100000    11.052579993    38.094581405    25.727882679   0   0   0 # cp
   2239      1   2  0.100000    10.326836241    20.991384262    26.045762910   0   0   0 # h
   2240      1   2  0.100000    12.073958833    20.687999077    27.590571285   0   0   0 # h
   2241      1   2  0.100000    12.533072280    36.935652599    26.547386867   0   0   0 # h
   2242      1   2  0.100000    10.698267759    37.295120460    25.074929823   0   0   0 # h
   2243      1   1 -0.100000    13.974119454    39.628380393    29.978881567   0   0   0 # cp
   2244      1   1  0.000000    14.828222883    39.461515886    28.887343537   0   0   0 # cp
   2245      1   1 -0.100000    16.209520701    39.417088932    29.112098291   0   0   0 # cp
   2246      1   1 -0.100000    16.700294077    39.369144749    30.381828338   0   0   0 # cp
   2247      1   1  0.000000    15.849436392    39.377070094    31.461367508   0   0   0 # cp
   2248      1   1 -0.100000    14.486205508    39.594512593    31.248969788   0   0   0 # cp
   2249      1   3  0.000000    14.318133468    39.013778676    27.471299041   0   0   0 # c
   2250      1   1  0.000000    13.994935943    -0.821303965    26.306156067   0   1   0 # cp
   2251      1   1 -0.100000    14.622286491    39.684195123    24.944375070   0   0   0 # cp
   2252      1   1 -0.100000    14.394794671    20.185266571    23.952051489   0   0   0 # cp
   2253      1   1  0.000000    14.690695715    21.489274962    24.283005103   0   0   0 # cp
   2254      1   1 -0.100000    14.915718455    21.836434870    25.600193325   0   0   0 # cp
   2255      1   1 -0.100000    14.768954938    20.909909208    26.599143141   0   0   0 # cp
   2256      1   1 -0.100000    14.338314342    36.589152555    28.321964446   0   0   0 # cp
   2257      1   1 -0.100000    14.388707994    35.251667512    28.131236307   0   0   0 # cp
   2258      1   1  0.000000    14.803515303    34.722386470    26.912188010   0   0   0 # cp
   2259      1   1 -0.100000    15.460716119    35.570557627    26.025884202   0   0   0 # cp
   2260      1   1 -0.100000    15.502873126    36.941217046    26.299708919   0   0   0 # cp
   2261      1   1  0.000000    14.837308615    37.472942839    27.396261398   0   0   0 # cp
   2262      1   3  0.000000    14.283334722    33.269302361    26.470021087   0   0   0 # c
   2263      1   1  0.000000    16.099510337    30.084640800    28.673513117   0   0   0 # cp
   2264      1   1 -0.100000    14.913368383    29.855386891    28.069630223   0   0   0 # cp
   2265      1   1 -0.100000    14.223959081    30.878256060    27.500311208   0   0   0 # cp
   2266      1   1  0.000000    14.741704754    32.166776976    27.505862919   0   0   0 # cp
   2267      1   1 -0.100000    15.860381556    32.372513696    28.286863305   0   0   0 # cp
   2268      1   1 -0.100000    16.474078722    31.372845650    28.946800571   0   0   0 # cp
   2269      1   1  0.000000    14.785651498    32.602231461    25.119701687   0   0   0 # cp
   2270      1   1 -0.100000    13.926371906    31.787388507    24.382219553   0   0   0 # cp
   2271      1   1 -0.100000    14.390502958    31.029297217    23.346556808   0   0   0 # cp
   2272      1   1  0.000000    15.721929366    31.028947957    23.037272776   0   0   0 # cp
   2273      1   1 -0.100000    16.558274165    31.877790306    23.708492552   0   0   0 # cp
   2274      1   1 -0.100000    16.101093500    32.677115903    24.717829441   0   0   0 # cp
   2275      1   1 -0.100000    11.911151735    33.210952583    27.573020714   0   0   0 # cp
   2276      1   1 -0.100000    10.604896922    33.640716713    27.613494479   0   0   0 # cp
   2277      1   1  0.000000    10.037034529    34.335968906    26.553117666   0   0   0 # cp
   2278      1   1 -0.100000    10.827454979    34.626722510    25.463012335   0   0   0 # cp
   2279      1   1 -0.100000    12.141511509    34.209809493    25.440447316   0   0   0 # cp
   2280      1   1  0.000000    12.683185770    33.511762607    26.480587247   0   0   0 # cp
   2281      1   2  0.100000    12.909712688    39.658740414    29.858534798   0   0   0 # h
   2282      1   2  0.100000    16.891049348    39.353650473    28.286326042   0   0   0 # h
   2283      1   2  0.100000    17.761015338    39.200104392    30.479251912   0   0   0 # h
   2284      1   2  0.100000    13.756207100    39.556158951    32.063101352   0   0   0 # h
   2285      1   2  0.100000    14.261116191    38.718069449    24.637419174   0   0   0 # h
   2286      1   2  0.100000    13.844579351    -0.543234961    22.912269733   0   1   0 # h
   2287      1   2  0.100000    15.058870852    22.873080867    25.876704353   0   0   0 # h
   2288      1   2  0.100000    14.919574903    21.295349805    27.604898281   0   0   0 # h
   2289      1   2  0.100000    13.827829153    36.938166287    29.208984604   0   0   0 # h
   2290      1   2  0.100000    13.955521709    34.579857089    28.886269012   0   0   0 # h
   2291      1   2  0.100000    15.768870609    35.278406218    25.046275831   0   0   0 # h
   2292      1   2  0.100000    15.980942166    37.568860824    25.556675074   0   0   0 # h
   2293      1   2  0.100000    14.549054009    28.861384337    27.872813112   0   0   0 # h
   2294      1   2  0.100000    13.339138181    30.661941878    26.875475082   0   0   0 # h
   2295      1   2  0.100000    16.383717633    33.329890451    28.329665206   0   0   0 # h
   2296      1   2  0.100000    17.438474605    31.587773595    29.394519206   0   0   0 # h
   2297      1   2  0.100000    12.878164026    31.683034439    24.655865182   0   0   0 # h
   2298      1   2  0.100000    13.663004276    30.399998302    22.846007375   0   0   0 # h
   2299      1   2  0.100000    17.614621576    31.858367906    23.464396353   0   0   0 # h
   2300      1   2  0.100000    16.821751372    33.199965944    25.327801308   0   0   0 # h
   2301      1   2  0.100000    12.277898880    32.685072816    28.434073192   0   0   0 # h
   2302      1   2  0.100000    10.041138166    33.428162435    28.483680416   0   0   0 # h
   2303      1   2  0.100000    10.388342496    35.182498884    24.659267843   0   0   0 # h
   2304      1   2  0.100000    12.739075428    34.521022813    24.593721835   0   0   0 # h
   2305      1   1  0.000000    13.927936920    -1.256902933    34.658257643   0   1   0 # cp
   2306      1   1 -0.100000    14.244667945    38.338184391    34.997091106   0   0   0 # cp
   2307      1   1 -0.100000    12.887780274    38.210332033    35.227934833   0   0   0 # cp
   2308      1   1  0.000000    12.043746758    39.312652011    35.094872855   0   0   0 # cp
   2309      1   1 -0.100000    12.242279640    20.142568767    34.900204793   0   0   0 # cp
   2310      1   1 -0.100000    13.562577353    20.254929648    34.624589202   0   0   0 # cp
   2311      1   2  0.100000    14.844648242    37.435704114    34.989927608   0   0   0 # h
   2312      1   2  0.100000    12.475706662    37.219294589    35.350788827   0   0   0 # h
   2313      1   2  0.100000    11.629884482    21.019219899    34.938350421   0   0   0 # h
   2314      1   2  0.100000    13.939468508    21.245778288    34.404669809   0   0   0 # h
   2315      1   1 -0.100000    10.164979992    20.511335427    19.522681498   0   0   0 # cp
   2316      1   1  0.000000    10.445410600    39.734522535    18.795765523   0   0   0 # cp
   2317      1   1 -0.100000    10.289607621    38.569842437    19.555454502   0   0   0 # cp
   2318      1   1 -0.100000    10.341543778    38.549015320    20.914191013   0   0   0 # cp
   2319      1   1  0.000000    10.647620771    39.711117187    21.571083793   0   0   0 # cp
   2320      1   1 -0.100000    10.302293970    20.463222614    20.861002039   0   0   0 # cp
   2321      1   3  0.000000    10.438957188    39.227308942    35.148240917   0   0   0 # c
   2322      1   1  0.000000     9.676344287    37.943313116    34.536478175   0   0   0 # cp
   2323      1   1 -0.100000    10.268967469    37.021961191    33.683126458   0   0   0 # cp
   2324      1   1 -0.100000     9.577092669    35.976636417    33.165742805   0   0   0 # cp
   2325      1   1  0.000000     8.330664562    35.696298882    33.633340146   0   0   0 # cp
   2326      1   1 -0.100000     7.669304951    36.639228453    34.392850037   0   0   0 # cp
   2327      1   1 -0.100000     8.322123274    37.760274433    34.814242815   0   0   0 # cp
   2328      1   1 -0.100000     8.672694328    20.927790409    34.280204029   0   0   0 # cp
   2329      1   1 -0.100000     8.195743884    21.702735335    33.216245467   0   0   0 # cp
   2330      1   1  0.000000     8.621484062    21.468127324    31.930755724   0   0   0 # cp
   2331      1   1 -0.100000     9.500737149    20.421602220    31.719074354   0   0   0 # cp
   2332      1   1 -0.100000     9.960159681    19.672636598    32.745603638   0   0   0 # cp
   2333      1   1  0.000000     9.524763133    19.855862119    34.063687297   0   0   0 # cp
   2334      1   3  0.000000     8.086032572    22.264492078    30.613209328   0   0   0 # c
   2335      1   1  0.000000     4.676941166    25.003066364    30.419794878   0   0   0 # cp
   2336      1   1 -0.100000     5.605659808    24.911375972    29.422277761   0   0   0 # cp
   2337      1   1 -0.100000     6.680085285    24.090370660    29.580411982   0   0   0 # cp
   2338      1   1  0.000000     6.813327044    23.218865331    30.653504005   0   0   0 # cp
   2339      1   1 -0.100000     5.744721293    23.167174434    31.549478535   0   0   0 # cp
   2340      1   1 -0.100000     4.758868755    24.142984028    31.484469790   0   0   0 # cp
   2341      1   1  0.000000     7.648031111    21.219555895    29.483167495   0   0   0 # cp
   2342      1   1 -0.100000     7.771598684    21.491155069    28.102403227   0   0   0 # cp
   2343      1   1 -0.100000     6.900102070    20.919402617    27.190669001   0   0   0 # cp
   2344      1   1  0.000000     5.919535307    20.060228723    27.672951514   0   0   0 # cp
   2345      1   1 -0.100000     5.584413716    -0.851446081    28.958799431   0   1   0 # cp
   2346      1   1 -0.100000     6.819911533    20.191626980    29.849043163   0   0   0 # cp
   2347      1   1 -0.100000     9.690347714    24.254788713    30.996098304   0   0   0 # cp
   2348      1   1 -0.100000    10.926633976    24.848604786    31.004336326   0   0   0 # cp
   2349      1   1  0.000000    11.968528275    24.289114901    30.293538223   0   0   0 # cp
   2350      1   1 -0.100000    11.735268181    23.159100213    29.573606659   0   0   0 # cp
   2351      1   1 -0.100000    10.513525498    22.557051834    29.585784606   0   0   0 # cp
   2352      1   1  0.000000     9.454915202    23.068550384    30.323804003   0   0   0 # cp
   2353      1   2  0.100000    10.399974033    21.433626101    19.038608111   0   0   0 # h
   2354      1   2  0.100000    10.189243408    37.630292443    19.045234346   0   0   0 # h
   2355      1   2  0.100000    10.207571352    37.621090483    21.464884933   0   0   0 # h
   2356      1   2  0.100000    10.588545588    21.367462394    21.388593677   0   0   0 # h
   2357      1   2  0.100000    11.297358890    37.100008997    33.373305163   0   0   0 # h
   2358      1   2  0.100000    10.111284526    35.247110313    32.560069036   0   0   0 # h
   2359      1   2  0.100000     6.663922960    36.412584175    34.728639013   0   0   0 # h
   2360      1   2  0.100000     7.785100210    38.494016540    35.414185785   0   0   0 # h
   2361      1   2  0.100000     8.244655366    21.086314590    35.239038256   0   0   0 # h
   2362      1   2  0.100000     7.615453174    22.570899301    33.443507445   0   0   0 # h
   2363      1   2  0.100000     9.734640373    20.133446769    30.708125678   0   0   0 # h
   2364      1   2  0.100000    11.082320392    39.323858633    32.501507439   0   0   0 # h
   2365      1   2  0.100000     5.487716375    25.454541538    28.502663686   0   0   0 # h
   2366      1   2  0.100000     7.429746390    24.072209455    28.800127947   0   0   0 # h
   2367      1   2  0.100000     5.730338513    22.423347811    32.346596792   0   0   0 # h
   2368      1   2  0.100000     3.942155938    24.176706258    32.210132152   0   0   0 # h
   2369      1   2  0.100000     8.364473518    22.336026917    27.787209309   0   0   0 # h
   2370      1   2  0.100000     6.858200907    21.299510484    26.208016143   0   0   0 # h
   2371      1   2  0.100000     5.644289112    39.339483769    29.385385745   0   0   0 # h
   2372      1   2  0.100000     6.695001452    19.948740601    30.882198683   0   0   0 # h
   2373      1   2  0.100000     8.936570289    24.629295694    31.656214658   0   0   0 # h
   2374      1   2  0.100000    11.061036606    25.734242246    31.594429486   0   0   0 # h
   2375      1   2  0.100000    12.535222003    22.705768419    29.011272055   0   0   0 # h
   2376      1   2  0.100000    10.461569412    21.579550240    29.101173956   0   0   0 # h
   2377      1   1  0.000000    22.843722605    38.840236868    33.660382352   0   0   0 # cp
   2378      1   1 -0.100000    22.930899583    38.086301824    32.525146983   0   0   0 # cp
   2379      1   1 -0.100000    24.132446508    37.817617633    31.940247359   0   0   0 # cp
   2380      1   1  0.000000    25.295175150    38.404104475    32.429693370   0   0   0 # cp
   2381      1   1 -0.100000    25.213531718    39.155155956    33.592329119   0   0   0 # cp
   2382      1   1 -0.100000    24.000000245    39.400827828    34.183675891   0   0   0 # cp
   2383      1   2  0.100000    22.066685134    37.661998291    32.083696410   0   0   0 # h
   2384      1   2  0.100000    24.160101162    37.117700930    31.097461802   0   0   0 # h
   2385      1   2  0.100000    25.216905569    -1.205533550    34.074074370   0   1   0 # h
   2386      1   2  0.100000    23.128144412    -0.844217412    35.081441296   0   1   0 # h
   2387      1   1 -0.100000    26.211055060    38.720180833    29.384669396   0   0   0 # cp
   2388      1   1  0.000000    26.936557315    37.950326982    30.291389173   0   0   0 # cp
   2389      1   1 -0.100000    28.061758757    37.321223084    29.817523771   0   0   0 # cp
   2390      1   1 -0.100000    28.520792997    37.537159156    28.547972812   0   0   0 # cp
   2391      1   1  0.000000    27.847467639    38.379064193    27.685308548   0   0   0 # cp
   2392      1   1 -0.100000    26.656643558    38.944590621    28.101865965   0   0   0 # cp
   2393      1   3  0.000000    26.755068228    38.074701946    31.883834811   0   0   0 # c
   2394      1   1  0.000000    26.938083479    36.719577156    32.748469038   0   0   0 # cp
   2395      1   1 -0.100000    27.286888221    36.774518999    34.088043191   0   0   0 # cp
   2396      1   1 -0.100000    27.373675095    35.648739459    34.851493006   0   0   0 # cp
   2397      1   1  0.000000    27.162256969    34.423021901    34.305455360   0   0   0 # cp
   2398      1   1 -0.100000    26.787940638    34.353024755    32.963732157   0   0   0 # cp
   2399      1   1 -0.100000    26.673534638    35.478241968    32.198133293   0   0   0 # cp
   2400      1   1 -0.100000    26.891483143    20.180886583    31.738773974   0   0   0 # cp
   2401      1   1 -0.100000    27.581156609    21.301744781    32.028000212   0   0   0 # cp
   2402      1   1  0.000000    28.748821520    21.209053583    32.782495654   0   0   0 # cp
   2403      1   1 -0.100000    29.160983428    19.921474047    33.209798318   0   0   0 # cp
   2404      1   1 -0.100000    28.874307647    39.232011863    32.869173981   0   0   0 # cp
   2405      1   1  0.000000    27.713493228    39.328126563    32.142974357   0   0   0 # cp
   2406      1   3  0.000000    29.373880073    22.533054276    33.385662198   0   0   0 # c
   2407      1   1  0.000000    31.296964042    25.129027019    30.489280810  -1   0   0 # cp
   2408      1   1 -0.100000    30.980937608    25.612487293    31.729998689  -1   0   0 # cp
   2409      1   1 -0.100000    30.251445191    24.835993969    32.606273599  -1   0   0 # cp
   2410      1   1  0.000000    29.756410765    23.587150537    32.246845080   0   0   0 # cp
   2411      1   1 -0.100000    30.012720527    23.174070046    30.937894881   0   0   0 # cp
   2412      1   1 -0.100000    30.765753614    23.944930995    30.066813507  -1   0   0 # cp
   2413      1   1  0.000000    30.792761891    22.305196389    34.054016575  -1   0   0 # cp
   2414      1   1 -0.100000    31.095755612    22.881422341    35.273243959  -1   0   0 # cp
   2415      1   1 -0.100000     2.332292553    22.793954074    35.777196054   0   0   0 # cp
   2416      1   1  0.000000     3.319265559    22.155125996    35.054757266   0   0   0 # cp
   2417      1   1 -0.100000     3.041805687    21.601707726    33.846633303   0   0   0 # cp
   2418      1   1 -0.100000     1.761018377    21.687963492    33.350919232   0   0   0 # cp
   2419      1   1 -0.100000    27.526014179    24.144629115    34.218418857   0   0   0 # cp
   2420      1   1 -0.100000    26.400697480    24.374287445    34.953931029   0   0   0 # cp
   2421      1   1  0.000000    26.274420262    23.923714415    18.041628256   0   0   0 # cp
   2422      1   1 -0.100000    27.041691852    22.824181128    18.326735482   0   0   0 # cp
   2423      1   1 -0.100000    27.879329433    22.155484960    35.460032173   0   0   0 # cp
   2424      1   1  0.000000    28.242059922    23.002269880    34.396610874   0   0   0 # cp
   2425      1   2  0.100000    25.332897743    39.266877491    29.663150386   0   0   0 # h
   2426      1   2  0.100000    28.686452486    36.747804160    30.484803623   0   0   0 # h
   2427      1   2  0.100000    29.483893517    37.126431818    28.259821099   0   0   0 # h
   2428      1   2  0.100000    26.134465055    39.665524692    27.490103223   0   0   0 # h
   2429      1   2  0.100000    27.415531665    37.719718307    34.583578175   0   0   0 # h
   2430      1   2  0.100000    27.868360886    36.162595080    18.012257914   0   0   0 # h
   2431      1   2  0.100000    26.580656584    33.396846712    32.527654207   0   0   0 # h
   2432      1   2  0.100000    26.330874717    35.423036496    31.185393742   0   0   0 # h
   2433      1   2  0.100000    25.923707751    20.358032584    31.249507050   0   0   0 # h
   2434      1   2  0.100000    27.172019184    22.278813185    31.795007434   0   0   0 # h
   2435      1   2  0.100000    30.001872628    19.795878314    33.913432924  -1   0   0 # h
   2436      1   2  0.100000    29.236813089    38.288095704    33.230035200   0   0   0 # h
   2437      1   2  0.100000     1.272391684    26.611306821    32.026746599   0   0   0 # h
   2438      1   2  0.100000    30.172474904    25.159887210    33.651607066  -1   0   0 # h
   2439      1   2  0.100000    29.755044833    22.183467671    30.568795639   0   0   0 # h
   2440      1   2  0.100000    30.992142600    23.599365961    29.058013880  -1   0   0 # h
   2441      1   2  0.100000    30.678546758    23.861374984    17.957457153  -1   0   0 # h
   2442      1   2  0.100000     2.780384030    23.584207025    18.876175790   0   0   0 # h
   2443      1   2  0.100000     3.817994816    21.149919479    33.209261056   0   0   0 # h
   2444      1   2  0.100000     1.630730705    21.338553425    32.340686906   0   0   0 # h
   2445      1   2  0.100000    27.733170052    24.855682378    33.443686533   0   0   0 # h
   2446      1   2  0.100000    25.865399107    25.276415397    34.757113918   0   0   0 # h
   2447      1   2  0.100000    26.761593653    22.061314650    19.047383396   0   0   0 # h
   2448      1   2  0.100000    28.424209969    21.257714827    35.645029513   0   0   0 # h
   2449      1   1  0.000000     5.128524892    20.692465790    23.121802054   0   0   0 # cp
   2450      1   1 -0.100000     6.440973668    20.555957639    22.751449200   0   0   0 # cp
   2451      1   1 -0.100000     7.330491917    21.599016935    22.813950721   0   0   0 # cp
   2452      1   1  0.000000     6.944611167    22.836821962    23.279219926   0   0   0 # cp
   2453      1   1 -0.100000     5.617317653    22.966463105    23.707776202   0   0   0 # cp
   2454      1   1 -0.100000     4.741520570    21.893318483    23.631126772   0   0   0 # cp
   2455      1   2  0.100000     6.385559453    -0.776445756    22.285463645   0   1   0 # h
   2456      1   2  0.100000     8.326006012    21.425287886    22.411541213   0   0   0 # h
   2457      1   2  0.100000     5.220220535    23.942698827    23.887400918   0   0   0 # h
   2458      1   2  0.100000     3.718138307    22.060481267    23.921069360   0   0   0 # h
   2459      1   1 -0.100000     6.195124750    25.030654377    21.198402802   0   0   0 # cp
   2460      1   1  0.000000     7.378227282    24.397916804    21.476525617   0   0   0 # cp
   2461      1   1 -0.100000     8.040663704    23.807760030    20.408448044   0   0   0 # cp
   2462      1   1 -0.100000     7.505923203    23.832342291    19.133882636   0   0   0 # cp
   2463      1   1  0.000000     6.277757039    24.356703875    18.907695182   0   0   0 # cp
   2464      1   1 -0.100000     5.614147905    24.941808307    19.947297850   0   0   0 # cp
   2465      1   3  0.000000     7.854454288    24.136733356    22.962235133   0   0   0 # c
   2466      1   1  0.000000     9.447644349    23.954320759    23.055360609   0   0   0 # cp
   2467      1   1 -0.100000    10.304412070    24.656269115    22.224573911   0   0   0 # cp
   2468      1   1 -0.100000    11.603956601    24.261698069    22.040292921   0   0   0 # cp
   2469      1   1  0.000000    12.152162166    23.278657135    22.801414599   0   0   0 # cp
   2470      1   1 -0.100000    11.375527348    22.725427658    23.837614606   0   0   0 # cp
   2471      1   1 -0.100000    10.027879411    23.090706135    23.964945786   0   0   0 # cp
   2472      1   1 -0.100000     7.942689909    26.605349230    23.597100156   0   0   0 # cp
   2473      1   1 -0.100000     8.167162081    27.577375926    24.544651873   0   0   0 # cp
   2474      1   1  0.000000     8.084778324    27.326051751    25.931326027   0   0   0 # cp
   2475      1   1 -0.100000     7.570702064    26.072097493    26.264607778   0   0   0 # cp
   2476      1   1 -0.100000     7.428250670    25.081365732    25.331383057   0   0   0 # cp
   2477      1   1  0.000000     7.653134954    25.318820800    23.979272782   0   0   0 # cp
   2478      1   3  0.000000     8.907790318    28.234283145    27.006208924   0   0   0 # c
   2479      1   1  0.000000    12.764842140    26.597773132    25.833007015   0   0   0 # cp
   2480      1   1 -0.100000    12.606489187    27.984451540    25.918610818   0   0   0 # cp
   2481      1   1 -0.100000    11.454551539    28.508545322    26.448888768   0   0   0 # cp
   2482      1   1  0.000000    10.383949768    27.715587306    26.796318428   0   0   0 # cp
   2483      1   1 -0.100000    10.669308166    26.371731525    26.931708543   0   0   0 # cp
   2484      1   1 -0.100000    11.808716111    25.806991044    26.420055688   0   0   0 # cp
   2485      1   1  0.000000     8.596336654    28.032726835    28.587372052   0   0   0 # cp
   2486      1   1 -0.100000     7.296017532    27.739655744    29.005720344   0   0   0 # cp
   2487      1   1 -0.100000     6.989684611    27.623202795    30.324699440   0   0   0 # cp
   2488      1   1  0.000000     7.972156639    27.598163337    31.277086518   0   0   0 # cp
   2489      1   1 -0.100000     9.248905856    27.969763181    30.913897162   0   0   0 # cp
   2490      1   1 -0.100000     9.550044154    28.186051154    29.576651146   0   0   0 # cp
   2491      1   1 -0.100000     7.520562991    30.467298036    27.265885731   0   0   0 # cp
   2492      1   1 -0.100000     7.234404334    31.754258978    26.908964436   0   0   0 # cp
   2493      1   1  0.000000     7.852301404    32.366318325    25.879748840   0   0   0 # cp
   2494      1   1 -0.100000     8.820522974    31.692216296    25.216946174   0   0   0 # cp
   2495      1   1 -0.100000     9.145312636    30.427734288    25.572792945   0   0   0 # cp
   2496      1   1  0.000000     8.534680529    29.758051869    26.639616906   0   0   0 # cp
   2497      1   2  0.100000     5.606018483    25.426477929    22.003759081   0   0   0 # h
   2498      1   2  0.100000     8.924719916    23.190011962    20.516258691   0   0   0 # h
   2499      1   2  0.100000     8.079068914    23.374455448    18.346435102   0   0   0 # h
   2500      1   2  0.100000     4.607558715    25.323473847    19.835547279   0   0   0 # h
   2501      1   2  0.100000     9.941474303    25.469359890    21.617467443   0   0   0 # h
   2502      1   2  0.100000    12.180950057    24.701463378    21.256964399   0   0   0 # h
   2503      1   2  0.100000    11.751850610    21.990274111    24.498984572   0   0   0 # h
   2504      1   2  0.100000     9.373710875    22.638973467    24.709949593   0   0   0 # h
   2505      1   2  0.100000     8.137120236    26.829705729    22.570749959   0   0   0 # h
   2506      1   2  0.100000     8.529543099    28.488183678    24.124154532   0   0   0 # h
   2507      1   2  0.100000     7.503213221    25.777800193    27.305284971   0   0   0 # h
   2508      1   2  0.100000     7.243828896    24.062530233    25.718749219   0   0   0 # h
   2509      1   2  0.100000    13.422385885    28.658238106    25.683468991   0   0   0 # h
   2510      1   2  0.100000    11.366199171    29.557868185    26.575503598   0   0   0 # h
   2511      1   2  0.100000     9.923471256    25.707075233    27.353280409   0   0   0 # h
   2512      1   2  0.100000    11.853148865    24.731053089    26.419518425   0   0   0 # h
   2513      1   2  0.100000     6.535327351    27.624029525    28.255881175   0   0   0 # h
   2514      1   2  0.100000     5.949533707    27.539057499    30.589569784   0   0   0 # h
   2515      1   2  0.100000    10.038116167    27.967974985    31.665527205   0   0   0 # h
   2516      1   2  0.100000    10.589330234    28.423311369    29.337211220   0   0   0 # h
   2517      1   2  0.100000     6.951514888    30.071723123    28.080017296   0   0   0 # h
   2518      1   2  0.100000     6.521081479    32.336015245    27.478820714   0   0   0 # h
   2519      1   2  0.100000     9.341408322    32.180984974    24.415529819   0   0   0 # h
   2520      1   2  0.100000     9.887903011    29.950929487    24.957806629   0   0   0 # h
   2521      1   1  0.000000     1.987077898    20.876380909    21.929975050   0   0   0 # cp
   2522      1   1 -0.100000    31.128051524    20.309837758    22.810368972  -1   0   0 # cp
   2523      1   1 -0.100000    30.258276476    21.091971706    23.506123729  -1   0   0 # cp
   2524      1   1  0.000000    30.254645135    22.473461831    23.367510040  -1   0   0 # cp
   2525      1   1 -0.100000    31.061239709    22.992964052    22.350830566  -1   0   0 # cp
   2526      1   1 -0.100000     1.901074679    22.208168885    21.629108128   0   0   0 # cp
   2527      1   2  0.100000    31.653930470    39.695808633    23.113564031  -1   0   0 # h
   2528      1   2  0.100000    29.717083835    20.688647308    24.354998260   0   0   0 # h
   2529      1   2  0.100000    31.143800608    24.054671722    22.199859842  -1   0   0 # h
   2530      1   2  0.100000     2.634496252    22.638574425    20.958425614   0   0   0 # h
   2531      1   1 -0.100000     1.897477825    23.640327378    25.669141995   0   0   0 # cp
   2532      1   1  0.000000    30.652307618    23.109988925    25.713734771  -1   0   0 # cp
   2533      1   1 -0.100000    30.434809820    22.065793819    26.602724891  -1   0   0 # cp
   2534      1   1 -0.100000     1.395330630    21.521033974    27.336625276   0   0   0 # cp
   2535      1   1  0.000000     2.676721826    22.027519598    27.264453032   0   0   0 # cp
   2536      1   1 -0.100000     2.907388199    23.120477513    26.464111201   0   0   0 # cp
   2537      1   3  0.000000    29.596695014    23.353870570    24.550203584   0   0   0 # c
   2538      1   1  0.000000    28.123648933    23.118429445    25.123462523   0   0   0 # cp
   2539      1   1 -0.100000    27.659243078    23.809993817    26.245982683   0   0   0 # cp
   2540      1   1 -0.100000    26.441634852    23.522888869    26.785035918   0   0   0 # cp
   2541      1   1  0.000000    25.656941320    22.551670335    26.267294090   0   0   0 # cp
   2542      1   1 -0.100000    26.121058000    21.834188970    25.188292182   0   0   0 # cp
   2543      1   1 -0.100000    27.306336937    22.139683770    24.587095600   0   0   0 # cp
   2544      1   1 -0.100000    29.866088373    25.955235284    24.612526018   0   0   0 # cp
   2545      1   1 -0.100000    29.287701574    27.179238285    24.382040465   0   0   0 # cp
   2546      1   1  0.000000    28.223155743    27.328801681    23.481946923   0   0   0 # cp
   2547      1   1 -0.100000    27.863439747    26.209964150    22.755389124   0   0   0 # cp
   2548      1   1 -0.100000    28.464334461    25.004037149    22.972264030   0   0   0 # cp
   2549      1   1  0.000000    29.389232254    24.825846849    23.988406242   0   0   0 # cp
   2550      1   3  0.000000    27.271893387    28.600453565    23.396701295   0   0   0 # c
   2551      1   1  0.000000    23.526767014    27.377919278    25.264404349   0   0   0 # cp
   2552      1   1 -0.100000    23.511906541    28.274478192    24.184865179   0   0   0 # cp
   2553      1   1 -0.100000    24.704085490    28.647655122    23.596204719   0   0   0 # cp
   2554      1   1  0.000000    25.901477104    28.130510827    24.038371642   0   0   0 # cp
   2555      1   1 -0.100000    25.880676292    27.296683680    25.176472410   0   0   0 # cp
   2556      1   1 -0.100000    24.722344940    26.900740523    25.761013858   0   0   0 # cp
   2557      1   1  0.000000    27.440070589    28.900931693    21.827716114   0   0   0 # cp
   2558      1   1 -0.100000    28.663305197    29.384865433    21.400413449   0   0   0 # cp
   2559      1   1 -0.100000    29.054770720    29.213811908    20.103103935   0   0   0 # cp
   2560      1   1  0.000000    28.252625281    28.672420583    19.176147275   0   0   0 # cp
   2561      1   1 -0.100000    26.999358018    28.280454232    19.528591384   0   0   0 # cp
   2562      1   1 -0.100000    26.582452049    28.432498205    20.853301278   0   0   0 # cp
   2563      1   1 -0.100000    27.132510315    31.145267337    23.731057571   0   0   0 # cp
   2564      1   1 -0.100000    27.264303714    32.322068691    24.449198260   0   0   0 # cp
   2565      1   1  0.000000    27.826135970    32.301969381    25.706571272   0   0   0 # cp
   2566      1   1 -0.100000    28.210736002    31.097190696    26.259772417   0   0   0 # cp
   2567      1   1 -0.100000    28.039998428    29.951337566    25.536259104   0   0   0 # cp
   2568      1   1  0.000000    27.577677929    29.933878633    24.243784951   0   0   0 # cp
   2569      1   2  0.100000     2.162963464    24.379157500    24.928794461   0   0   0 # h
   2570      1   2  0.100000    29.499254580    21.540800703    26.628155309   0   0   0 # h
   2571      1   2  0.100000    31.227547117    20.619486053    27.929225660  -1   0   0 # h
   2572      1   2  0.100000     3.913577412    23.504088128    26.365254927   0   0   0 # h
   2573      1   2  0.100000    28.287796247    24.565832058    26.686000556   0   0   0 # h
   2574      1   2  0.100000    26.132475383    24.058019778    27.682801324   0   0   0 # h
   2575      1   2  0.100000    25.573214897    20.965208414    24.820804727   0   0   0 # h
   2576      1   2  0.100000    27.598549878    21.577549520    23.700612704   0   0   0 # h
   2577      1   2  0.100000    30.647720987    25.903565924    25.341053780  -1   0   0 # h
   2578      1   2  0.100000    29.664750849    28.000830606    24.952434005   0   0   0 # h
   2579      1   2  0.100000    27.029485301    26.165610406    22.039218397   0   0   0 # h
   2580      1   2  0.100000    28.076368764    24.115039860    22.456313076   0   0   0 # h
   2581      1   2  0.100000    22.599699682    28.705316414    23.819884948   0   0   0 # h
   2582      1   2  0.100000    24.673235880    29.349074775    22.753060987   0   0   0 # h
   2583      1   2  0.100000    26.775423917    26.908050940    25.639950740   0   0   0 # h
   2584      1   2  0.100000    24.753885032    26.226869853    26.595740480   0   0   0 # h
   2585      1   2  0.100000    29.383279603    29.743189647    22.150610793   0   0   0 # h
   2586      1   2  0.100000    30.052833111    29.533372107    19.879602793   0   0   0 # h
   2587      1   2  0.100000    26.409455509    27.832832107    18.738636626   0   0   0 # h
   2588      1   2  0.100000    25.609168962    28.033522691    21.138587592   0   0   0 # h
   2589      1   2  0.100000    26.686581339    31.209245658    22.754493686   0   0   0 # h
   2590      1   2  0.100000    26.876268288    33.237691546    24.049833239   0   0   0 # h
   2591      1   2  0.100000    28.634074371    31.021002072    27.243499800   0   0   0 # h
   2592      1   2  0.100000    28.257953758    29.050654076    26.056687244   0   0   0 # h
   2593      1   1  0.000000    16.175103985    36.201557765    20.747818768   0   0   0 # cp
   2594      1   1 -0.100000    15.022772064    36.651548803    20.156471996   0   0   0 # cp
   2595      1   1 -0.100000    14.268845128    35.809637049    19.389261345   0   0   0 # cp
   2596      1   1  0.000000    14.630711805    34.485734416    19.281450698   0   0   0 # cp
   2597      1   1 -0.100000    15.681306024    34.032680800    20.039348802   0   0   0 # cp
   2598      1   1 -0.100000    16.434376007    34.850805439    20.811215727   0   0   0 # cp
   2599      1   2  0.100000    14.810876663    37.710882118    20.142503175   0   0   0 # h
   2600      1   2  0.100000    13.486758426    36.258003672    18.788781113   0   0   0 # h
   2601      1   2  0.100000    16.089296562    33.037448124    20.026812680   0   0   0 # h
   2602      1   2  0.100000    17.319150741    34.440014170    21.288304703   0   0   0 # h
   2603      1   1 -0.100000    15.980622444    33.230321748    34.655571332   0   0   0 # cp
   2604      1   1  0.000000    14.679353879    33.637433376    34.792215059   0   0   0 # cp
   2605      1   1 -0.100000    14.210848066    34.560432621    33.865795661   0   0   0 # cp
   2606      1   1 -0.100000    14.968410038    34.930249384    32.790375502   0   0   0 # cp
   2607      1   1  0.000000    16.191638926    34.356976706    32.583708580   0   0   0 # cp
   2608      1   1 -0.100000    16.700400369    33.514982034    33.520335963   0   0   0 # cp
   2609      1   3  0.000000    14.075845742    33.572343764    18.130097458   0   0   0 # c
   2610      1   1  0.000000    12.226974949    33.204067746    35.686398715   0   0   0 # cp
   2611      1   1 -0.100000    11.783437941    32.491144156    34.595756122   0   0   0 # cp
   2612      1   1 -0.100000    10.496546419    32.532023670    34.163976271   0   0   0 # cp
   2613      1   1  0.000000     9.565875852    33.205323579    34.905040154   0   0   0 # cp
   2614      1   1 -0.100000    10.219167550    34.284819865    18.135649169   0   0   0 # cp
   2615      1   1 -0.100000    11.540448406    34.287549863    18.518000883   0   0   0 # cp
   2616      1   1 -0.100000    14.936142250    31.077594767    17.951189092   0   0   0 # cp
   2617      1   1 -0.100000    14.722367946    29.754807082    18.181137382   0   0   0 # cp
   2618      1   1  0.000000    13.634418202    29.372481831    18.917186817   0   0   0 # cp
   2619      1   1 -0.100000    13.067052950    30.319895458    19.764628648   0   0   0 # cp
   2620      1   1 -0.100000    13.356081004    31.645663747    19.608285301   0   0   0 # cp
   2621      1   1  0.000000    14.183839210    32.060699368    18.580860579   0   0   0 # cp
   2622      1   3  0.000000    12.924418884    27.959410504    18.623841568   0   0   0 # c
   2623      1   1  0.000000     8.734964361    27.945590183    34.730071712   0   0   0 # cp
   2624      1   1 -0.100000     8.974222913    26.904498684    35.617270958   0   0   0 # cp
   2625      1   1 -0.100000    10.427089806    27.292605440    18.445291377   0   0   0 # cp
   2626      1   1  0.000000    11.398973541    28.262456977    18.267994797   0   0   0 # cp
   2627      1   1 -0.100000    10.797692639    28.934671823    35.392337116   0   0   0 # cp
   2628      1   1 -0.100000     9.634732711    28.979109420    34.658794906   0   0   0 # cp
   2629      1   1  0.000000    13.225275860    27.318349539    20.048124087   0   0   0 # cp
   2630      1   1 -0.100000    14.423525586    26.709899863    20.291324849   0   0   0 # cp
   2631      1   1 -0.100000    14.795807776    26.399994465    21.572695580   0   0   0 # cp
   2632      1   1  0.000000    14.014928829    26.730439585    22.652234750   0   0   0 # cp
   2633      1   1 -0.100000    12.774799279    27.270964698    22.424435509   0   0   0 # cp
   2634      1   1 -0.100000    12.370360936    27.538199839    21.125872383   0   0   0 # cp
   2635      1   1 -0.100000    13.036678787    25.322579295    35.255335214   0   0   0 # cp
   2636      1   1 -0.100000    13.424713266    24.590197722    34.141232165   0   0   0 # cp
   2637      1   1  0.000000    13.712285306    25.207894552    32.931317328   0   0   0 # cp
   2638      1   1 -0.100000    13.672712828    26.602162327    32.901409723   0   0   0 # cp
   2639      1   1 -0.100000    13.298003120    27.320546257    34.029302506   0   0   0 # cp
   2640      1   1  0.000000    13.054952223    26.695559016    35.245485404   0   0   0 # cp
   2641      1   2  0.100000    16.482953511    32.692846612    35.436034455   0   0   0 # h
   2642      1   2  0.100000    13.250154582    35.017348207    33.958742049   0   0   0 # h
   2643      1   2  0.100000    14.622500674    35.667191293    32.087278159   0   0   0 # h
   2644      1   2  0.100000    17.717333045    33.125503508    33.415390715   0   0   0 # h
   2645      1   2  0.100000    12.488238419    31.859883992    34.065478172   0   0   0 # h
   2646      1   2  0.100000    10.185426331    31.925022037    33.319578927   0   0   0 # h
   2647      1   2  0.100000     9.505071338    34.812873683    18.723772367   0   0   0 # h
   2648      1   2  0.100000    11.796276424    34.823863565    19.426332448   0   0   0 # h
   2649      1   2  0.100000    15.396339997    30.866170768    35.092007456   0   0   0 # h
   2650      1   2  0.100000    15.032071925    28.629290921    35.515370197   0   0   0 # h
   2651      1   2  0.100000    12.221306546    30.075967083    20.386778462   0   0   0 # h
   2652      1   2  0.100000    12.787441794    32.359259901    20.205541959   0   0   0 # h
   2653      1   2  0.100000     8.344026555    26.066326578    35.609749285   0   0   0 # h
   2654      1   2  0.100000    10.620852542    26.455172799    19.080872750   0   0   0 # h
   2655      1   2  0.100000    11.558583320    29.677898407    35.173134073   0   0   0 # h
   2656      1   2  0.100000     9.452171209    29.805437089    33.982918856   0   0   0 # h
   2657      1   2  0.100000    15.125126400    26.591742749    19.474865148   0   0   0 # h
   2658      1   2  0.100000    15.810504990    25.970566487    21.719368204   0   0   0 # h
   2659      1   2  0.100000    12.135535254    27.554722068    23.256117644   0   0   0 # h
   2660      1   2  0.100000    11.463236720    28.063409254    20.968454511   0   0   0 # h
   2661      1   2  0.100000    13.006387126    25.196020557    18.235042706   0   0   0 # h
   2662      1   2  0.100000    13.401913605    23.509850875    34.189764865   0   0   0 # h
   2663      1   2  0.100000    13.866735396    27.130151373    31.993615420   0   0   0 # h
   2664      1   2  0.100000    13.265531171    28.417486763    33.943161441   0   0   0 # h
   2665      1   1  0.000000    19.054808660    36.332937737    19.401439292   0   0   0 # cp
   2666      1   1 -0.100000    19.984854496    35.814347871    20.273774278   0   0   0 # cp
   2667      1   1 -0.100000    20.719656960    34.739912095    19.901988725   0   0   0 # cp
   2668      1   1  0.000000    20.545423982    34.140192024    18.639780351   0   0   0 # cp
   2669      1   1 -0.100000    19.440181016    34.338241153    35.649327612   0   0   0 # cp
   2670      1   1 -0.100000    18.977862567    35.833694267    18.119710386   0   0   0 # cp
   2671      1   2  0.100000    20.135675304    36.238490348    21.239234741   0   0   0 # h
   2672      1   2  0.100000    21.393662047    34.306346425    20.655767817   0   0   0 # h
   2673      1   2  0.100000    19.314030936    33.948346547    34.668286541   0   0   0 # h
   2674      1   2  0.100000    18.038146338    35.852073141    35.323746621   0   0   0 # h
   2675      1   1 -0.100000    19.002331898    31.696591338    19.174535488   0   0   0 # cp
   2676      1   1  0.000000    20.354970429    31.917580936    19.467164387   0   0   0 # cp
   2677      1   1 -0.100000    20.798594516    31.525288217    20.727581886   0   0   0 # cp
   2678      1   1 -0.100000    19.962702296    30.786984500    21.559264021   0   0   0 # cp
   2679      1   1  0.000000    18.667250348    30.520477259    21.178882269   0   0   0 # cp
   2680      1   1 -0.100000    18.198382527    30.946753029    19.984368953   0   0   0 # cp
   2681      1   3  0.000000    21.234414287    32.741245089    18.414846509   0   0   0 # c
   2682      1   1  0.000000    22.794527998    32.900585353    18.672553355   0   0   0 # cp
   2683      1   1 -0.100000    23.619370769    31.873519931    19.141583396   0   0   0 # cp
   2684      1   1 -0.100000    24.973359359    32.013781183    19.236857922   0   0   0 # cp
   2685      1   1  0.000000    25.554361712    33.199393688    18.796660961   0   0   0 # cp
   2686      1   1 -0.100000    24.777088094    34.219675268    18.391027878   0   0   0 # cp
   2687      1   1 -0.100000    23.428319449    34.078738815    18.307214950   0   0   0 # cp
   2688      1   1 -0.100000    20.532902985    30.310664837    34.762307454   0   0   0 # cp
   2689      1   1 -0.100000    21.034329626    29.485425396    33.831410870   0   0   0 # cp
   2690      1   1  0.000000    22.151533621    29.850595429    33.104494895   0   0   0 # cp
   2691      1   1 -0.100000    22.380398549    31.215492407    32.985939001   0   0   0 # cp
   2692      1   1 -0.100000    21.714298807    32.122193875    33.810994900   0   0   0 # cp
   2693      1   1  0.000000    20.959193646    31.639479018    34.869580839   0   0   0 # cp
   2694      1   3  0.000000    23.154378513    28.708792906    32.618988809   0   0   0 # c
   2695      1   1  0.000000    27.254875971    29.029661703    33.951936726   0   0   0 # cp
   2696      1   1 -0.100000    26.959131462    28.292160540    32.829774742   0   0   0 # cp
   2697      1   1 -0.100000    25.706601015    28.343207985    32.285707057   0   0   0 # cp
   2698      1   1  0.000000    24.693072918    29.027345834    32.938301738   0   0   0 # cp
   2699      1   1 -0.100000    25.033008696    29.796707917    34.042196803   0   0   0 # cp
   2700      1   1 -0.100000    26.292185273    29.797876662    34.535403650   0   0   0 # cp
   2701      1   1  0.000000    22.819903485    28.524715298    31.092089179   0   0   0 # cp
   2702      1   1 -0.100000    21.762313582    27.722935584    30.670159138   0   0   0 # cp
   2703      1   1 -0.100000    21.537553195    27.509037384    29.336853045   0   0   0 # cp
   2704      1   1  0.000000    22.248511015    28.178583009    28.389838591   0   0   0 # cp
   2705      1   1 -0.100000    23.187093909    29.125704920    28.811589544   0   0   0 # cp
   2706      1   1 -0.100000    23.483118462    29.266600933    30.141672062   0   0   0 # cp
   2707      1   1 -0.100000    23.202734653    26.061660029    32.917885769   0   0   0 # cp
   2708      1   1 -0.100000    23.239816765    24.925340482    33.695662580   0   0   0 # cp
   2709      1   1  0.000000    23.135593236    25.000915013    35.060846239   0   0   0 # cp
   2710      1   1 -0.100000    22.933940752    26.217224793    35.651476661   0   0   0 # cp
   2711      1   1 -0.100000    23.036057477    27.357792944    34.892862208   0   0   0 # cp
   2712      1   1  0.000000    23.120222107    27.327060260    33.504218092   0   0   0 # cp
   2713      1   2  0.100000    18.632571482    32.004029426    18.218208485   0   0   0 # h
   2714      1   2  0.100000    21.780039277    31.793503293    21.113515349   0   0   0 # h
   2715      1   2  0.100000    20.301100383    30.527769282    22.548543115   0   0   0 # h
   2716      1   2  0.100000    17.192247876    30.722053148    19.640700130   0   0   0 # h
   2717      1   2  0.100000    23.183576412    30.912335084    19.402513816   0   0   0 # h
   2718      1   2  0.100000    25.602800216    31.185835912    19.526442334   0   0   0 # h
   2719      1   2  0.100000    25.215735308    35.152284968    18.042344606   0   0   0 # h
   2720      1   2  0.100000    22.585665598    34.480260293    35.748004799   0   0   0 # h
   2721      1   2  0.100000    19.976825740    29.760822431    35.504087687   0   0   0 # h
   2722      1   2  0.100000    20.757655677    28.464654272    33.881197182   0   0   0 # h
   2723      1   2  0.100000    23.188550810    31.578627474    32.328867134   0   0   0 # h
   2724      1   2  0.100000    22.073333447    33.136640996    33.769804786   0   0   0 # h
   2725      1   2  0.100000    27.698114315    27.656440664    32.377041659   0   0   0 # h
   2726      1   2  0.100000    25.423887266    27.607138004    31.514019220   0   0   0 # h
   2727      1   2  0.100000    24.284036868    30.276770144    34.666316579   0   0   0 # h
   2728      1   2  0.100000    26.507652134    30.314539491    35.463613922   0   0   0 # h
   2729      1   2  0.100000    21.137453269    27.190145652    31.354631386   0   0   0 # h
   2730      1   2  0.100000    20.746862616    26.818805959    29.077355325   0   0   0 # h
   2731      1   2  0.100000    23.707541306    29.714822768    28.075002847   0   0   0 # h
   2732      1   2  0.100000    24.271185785    29.914539624    30.437882711   0   0   0 # h
   2733      1   2  0.100000    23.335307768    25.923676433    31.857150781   0   0   0 # h
   2734      1   2  0.100000    23.406014111    23.966151873    33.213559155   0   0   0 # h
   2735      1   2  0.100000    23.189423467    26.710262666    18.847163623   0   0   0 # h
   2736      1   2  0.100000    23.036038220    28.274916695    35.454480462   0   0   0 # h
   2737      1   4 -0.200000    17.309197498    37.135358255    21.136796718   0   0   0 # c2
   2738      1   4 -0.200000    18.173160679    37.483034365    19.890168953   0   0   0 # c2
   2739      1   2  0.100000    16.856150469    38.041699993    21.582903565   0   0   0 # h
   2740      1   2  0.100000    17.952017821    36.720437722    21.931407749   0   0   0 # h
   2741      1   2  0.100000    18.748201377    38.352650710    20.169008118   0   0   0 # h
   2742      1   2  0.100000    17.509772228    37.828468742    19.090364385   0   0   0 # h
   2743      1   4 -0.200000    21.768973764    28.127298418    26.919530596   0   0   0 # c2
   2744      1   4 -0.200000    22.251461743    26.996510127    26.013706255   0   0   0 # c2
   2745      1   2  0.100000    20.693031982    28.056224111    26.947468239   0   0   0 # h
   2746      1   2  0.100000    21.964133461    29.121723444    26.484706259   0   0   0 # h
   2747      1   2  0.100000    22.423376260    26.087251794    26.586786107   0   0   0 # h
   2748      1   2  0.100000    21.443996001    26.747901406    25.276761384   0   0   0 # h
   2749      1   4 -0.200000    28.587773869    28.946662169    34.640886160   0   0   0 # c2
   2750      1   4 -0.200000    28.611268119    27.866388438    35.755526472   0   0   0 # c2
   2751      1   2  0.100000    29.355592072    28.688880782    33.885853456   0   0   0 # h
   2752      1   2  0.100000    28.905718668    29.910804037    35.120661449   0   0   0 # h
   2753      1   2  0.100000    28.200829483    26.941990277    35.366011260   0   0   0 # h
   2754      1   2  0.100000    29.947141206    28.038287415    18.024256773   0   0   0 # h
   2755      1   4 -0.200000     7.587344990    27.010942976    32.659641661   0   0   0 # c2
   2756      1   4 -0.200000     7.497579952    27.954580858    33.844484254   0   0   0 # c2
   2757      1   2  0.100000     6.566163568    26.517525020    32.608959911   0   0   0 # h
   2758      1   2  0.100000     8.238115355    26.196408761    32.908035959   0   0   0 # h
   2759      1   2  0.100000     6.612290654    27.684645770    34.443889961   0   0   0 # h
   2760      1   2  0.100000     7.256041708    28.964250247    33.500099081   0   0   0 # h
   2761      1   4 -0.200000    14.733053885    26.637584010    24.044818790   0   0   0 # c2
   2762      1   4 -0.200000    14.005689551    25.953896967    25.222139710   0   0   0 # c2
   2763      1   2  0.100000    15.677797298    26.081064596    23.898862515   0   0   0 # h
   2764      1   2  0.100000    15.071955012    27.651508384    24.359117271   0   0   0 # h
   2765      1   2  0.100000    13.807136734    24.905841511    24.918407389   0   0   0 # h
   2766      1   2  0.100000    14.690098689    25.848851352    26.068865191   0   0   0 # h
   2767      1   4 -0.200000     3.651332629    -0.790439485    22.737301291   0   1   0 # c2
   2768      1   4 -0.200000     3.192068239    20.068585338    21.520939306   0   0   0 # c2
   2769      1   2  0.100000     4.997636780    39.098494663    22.484250719   0   0   0 # h
   2770      1   2  0.100000     3.864058671    39.783530649    23.624142361   0   0   0 # h
   2771      1   2  0.100000     3.261833786    39.602451696    20.978125234   0   0   0 # h
   2772      1   2  0.100000     3.849040341    20.606672088    20.766802038   0   0   0 # h
   2773      1   4 -0.200000    25.000446648    24.177061372    18.864356018   0   0   0 # c2
   2774      1   4 -0.200000    23.657949082    24.196647895    18.049687191   0   0   0 # c2
   2775      1   2  0.100000    24.897700932    23.455945986    19.694247278   0   0   0 # h
   2776      1   2  0.100000    25.162540100    25.114935877    19.402692904   0   0   0 # h
   2777      1   2  0.100000    22.787009387    24.100150735    18.748486436   0   0   0 # h
   2778      1   2  0.100000    23.364544723    22.826080155    35.379442819   0   0   0 # h
   2779      1   4 -0.200000    27.331949208    33.139550685    35.134809358   0   0   0 # c2
   2780      1   4 -0.200000    27.030199732    33.411926002    18.681149553   0   0   0 # c2
   2781      1   2  0.100000    26.900291441    32.293221525    34.566027605   0   0   0 # h
   2782      1   2  0.100000    28.397881583    32.910640758    35.164716962   0   0   0 # h
   2783      1   2  0.100000    27.281478222    34.311822604    19.290046895   0   0   0 # h
   2784      1   2  0.100000    27.598918965    32.626126881    19.247065907   0   0   0 # h
   2785      1   4 -0.200000     4.749854284    22.204734762    35.562828372   0   0   0 # c2
   2786      1   4 -0.200000     5.294090152    23.659512067    35.511609360   0   0   0 # c2
   2787      1   2  0.100000     5.023187660    22.199235856    18.673448793   0   0   0 # h
   2788      1   2  0.100000     5.411574173    21.532231099    34.945334832   0   0   0 # h
   2789      1   2  0.100000     5.977444584    23.771539692    34.663093005   0   0   0 # h
   2790      1   2  0.100000     4.495996970    24.389506695    35.334670956   0   0   0 # h
   2791      1   4 -0.200000    14.070053162    24.391558532    31.679496027   0   0   0 # c2
   2792      1   4 -0.200000    13.403925746    24.820308251    30.361233280   0   0   0 # c2
   2793      1   2  0.100000    15.163756209    24.387319802    31.607323783   0   0   0 # h
   2794      1   2  0.100000    13.789739845    23.328517146    31.852673594   0   0   0 # h
   2795      1   2  0.100000    13.962259805    24.376690425    29.539580043   0   0   0 # h
   2796      1   2  0.100000    13.461267037    25.913268632    30.191816549   0   0   0 # h
   2797      1   4 -0.200000     7.779372221    34.317236910    33.360948129   0   0   0 # c2
   2798      1   4 -0.200000     8.095169478    33.252915260    34.439233688   0   0   0 # c2
   2799      1   2  0.100000     6.707993126    34.427975250    33.154997557   0   0   0 # h
   2800      1   2  0.100000     8.153743081    33.916143782    32.404979301   0   0   0 # h
   2801      1   2  0.100000     7.783130190    32.266842739    34.015870947   0   0   0 # h
   2802      1   2  0.100000     7.428706476    33.442210864    35.312643199   0   0   0 # h
   2803      1   4 -0.200000     4.480705963    20.248309704    27.196220712   0   0   0 # c2
   2804      1   4 -0.200000     3.831746946    21.411724007    27.989578132   0   0   0 # c2
   2805      1   2  0.100000     4.516387197    20.517380279    26.099310058   0   0   0 # h
   2806      1   2  0.100000     4.282699887    39.732681101    27.244753412   0   0   0 # h
   2807      1   2  0.100000     4.554144099    22.219796826    28.176366346   0   0   0 # h
   2808      1   2  0.100000     3.522623180    21.063217943    28.982618062   0   0   0 # h
   2809      1   4 -0.200000     3.627050878    26.122963688    30.373411227   0   0   0 # c2
   2810      1   4 -0.200000     2.324214864    25.827568557    29.629481945   0   0   0 # c2
   2811      1   2  0.100000     3.511380611    26.494097984    31.406208572   0   0   0 # h
   2812      1   2  0.100000     4.042515380    26.984402466    29.793884227   0   0   0 # h
   2813      1   2  0.100000     2.507945596    25.272625381    28.714703231   0   0   0 # h
   2814      1   2  0.100000     1.878292668    26.800290038    29.320197912   0   0   0 # h
   2815      1   4 -0.200000     8.555939649    34.761796494    26.587323370   0   0   0 # c2
   2816      1   4 -0.200000     7.674063237    33.893969962    25.644427926   0   0   0 # c2
   2817      1   2  0.100000     8.156141878    34.669122660    27.604002844   0   0   0 # h
   2818      1   2  0.100000     8.486991148    35.829218598    26.331228311   0   0   0 # h
   2819      1   2  0.100000     7.854702120    34.174636928    24.593005486   0   0   0 # h
   2820      1   2  0.100000     6.615537983    34.133104852    25.832827927   0   0   0 # h
   2821      1   4 -0.200000    14.709557507    22.557167122    23.191646161   0   0   0 # c2
   2822      1   4 -0.200000    13.495685729    22.685194498    22.243378094   0   0   0 # c2
   2823      1   2  0.100000    15.618381645    22.430813795    22.586867830   0   0   0 # h
   2824      1   2  0.100000    14.901925473    23.577240911    23.627545023   0   0   0 # h
   2825      1   2  0.100000    13.247210274    21.737237014    21.761095581   0   0   0 # h
   2826      1   2  0.100000    13.843150539    23.301293470    21.400055274   0   0   0 # h
   2827      1   4 -0.200000    16.223153803    29.931924460    22.110316116   0   0   0 # c2
   2828      1   4 -0.200000    17.753452053    29.636938260    22.058738929   0   0   0 # c2
   2829      1   2  0.100000    15.778144921    30.085602903    21.094890253   0   0   0 # h
   2830      1   2  0.100000    15.734810453    29.013533726    22.426942734   0   0   0 # h
   2831      1   2  0.100000    17.888054105    28.588491746    21.736739687   0   0   0 # h
   2832      1   2  0.100000    18.146124713    29.587834865    23.080253765   0   0   0 # h
   2833      1   4 -0.200000    15.352124749    -1.117893421    34.106131024   0   1   0 # c2
   2834      1   4 -0.200000    16.434502992    38.923065814    32.820999456   0   0   0 # c2
   2835      1   2  0.100000    16.023734850    20.379389747    33.864542049   0   0   0 # h
   2836      1   2  0.100000    16.906953430    39.395629154    34.888922284   0   0   0 # h
   2837      1   2  0.100000    17.550691902    38.801871997    32.713367897   0   0   0 # h
   2838      1   2  0.100000    16.107550691    37.890206965    32.960329495   0   0   0 # h
   2839      1   4 -0.200000     9.959073390    39.581935612    24.102664038   0   0   0 # c2
   2840      1   4 -0.200000    11.056530987    39.676657181    23.006827909   0   0   0 # c2
   2841      1   2  0.100000     9.266589387    38.739725923    23.839047306   0   0   0 # h
   2842      1   2  0.100000     8.925087568    20.077028312    24.138302441   0   0   0 # h
   2843      1   2  0.100000    11.263180146    20.154556185    23.228538176   0   0   0 # h
   2844      1   2  0.100000    11.774356028    38.875478692    23.111235894   0   0   0 # h
   2845      1   4 -0.200000    27.033055543    33.560891697    27.868156838   0   0   0 # c2
   2846      1   4 -0.200000    27.885702004    33.574585370    26.561534776   0   0   0 # c2
   2847      1   2  0.100000    27.363865179    34.352628185    28.554778135   0   0   0 # h
   2848      1   2  0.100000    27.152207191    32.642992805    28.461652659   0   0   0 # h
   2849      1   2  0.100000    28.973916849    33.696745935    26.802944664   0   0   0 # h
   2850      1   2  0.100000    27.660445499    34.443520730    25.905537433   0   0   0 # h
   2851      1   4 -0.200000    24.310813115    22.219675105    26.919530596   0   0   0 # c2
   2852      1   4 -0.200000    23.067083452    22.259098326    25.998125647   0   0   0 # c2
   2853      1   2  0.100000    24.463982421    21.257145219    27.448554934   0   0   0 # h
   2854      1   2  0.100000    24.103771371    22.999923223    27.713783453   0   0   0 # h
   2855      1   2  0.100000    23.057319485    23.189016418    25.379378495   0   0   0 # h
   2856      1   2  0.100000    22.127266968    22.330499165    26.631020708   0   0   0 # h
   2857      1   4 -0.200000    16.968383649    34.478861563    31.276907431   0   0   0 # c2
   2858      1   4 -0.200000    17.697975102    35.787838792    31.070240509   0   0   0 # c2
   2859      1   2  0.100000    17.719335186    33.657219527    31.269564845   0   0   0 # h
   2860      1   2  0.100000    16.331114126    34.190643375    30.417645828   0   0   0 # h
   2861      1   2  0.100000    16.935311387    36.515232128    30.812175489   0   0   0 # h
   2862      1   2  0.100000    18.163140197    36.110018154    32.031402873   0   0   0 # h
   2863      1   4 -0.200000    28.706952506    37.808531655    25.222497885   0   0   0 # c2
   2864      1   4 -0.200000    28.533898878    38.843573833    26.356658729   0   0   0 # c2
   2865      1   2  0.100000    29.066430096    36.844138243    25.656247698   0   0   0 # h
   2866      1   2  0.100000    29.495007055    38.100753214    24.507580770   0   0   0 # h
   2867      1   2  0.100000    29.506691188    39.269303273    26.614186488   0   0   0 # h
   2868      1   2  0.100000    28.024619876    39.712876416    25.965352643   0   0   0 # h
   2869      1   4 -0.200000    21.303297793    37.731169644    35.318911260   0   0   0 # c2
   2870      1   4 -0.200000    21.510154792    38.963328172    34.413982357   0   0   0 # c2
   2871      1   2  0.100000    21.603143593    36.779088176    34.829644337   0   0   0 # h
   2872      1   2  0.100000    20.207347575    37.607615859    35.426542820   0   0   0 # h
   2873      1   2  0.100000    20.688719734    39.047841800    33.660024177   0   0   0 # h
   2874      1   2  0.100000    20.607445219    -0.961930610    35.043474756   0   1   0 # h
   2875      1   4 -0.200000    17.168705375    28.986731247    28.704853422   0   0   0 # c2
   2876      1   4 -0.200000    18.124399852    28.958947925    27.461270143   0   0   0 # c2
   2877      1   2  0.100000    17.805855225    29.190890030    29.597425291   0   0   0 # h
   2878      1   2  0.100000    16.705678521    28.000375687    28.845795248   0   0   0 # h
   2879      1   2  0.100000    17.498866781    28.790125148    26.523926411   0   0   0 # h
   2880      1   2  0.100000    18.751703588    28.075886303    27.540605885   0   0   0 # h

Bonds

     1   1      1      2
     2   1      1      6
     3   2      1    703
     4   1      2      3
     5   3      2      7
     6   1      3      4
     7   3      3      8
     8   1      4      5
     9   4      4     17
    10   1      5      6
    11   3      5      9
    12   3      6     10
    13   1     11     12
    14   1     11     16
    15   3     11     49
    16   1     12     13
    17   4     12     17
    18   1     13     14
    19   3     13     50
    20   1     14     15
    21   3     14     51
    22   1     15     16
    23   2     15   2149
    24   3     16     52
    25   4     18     17
    26   4     29     17
    27   1     18     19
    28   1     18     23
    29   1     19    740
    30   3     19     53
    31   1     20    739
    32   1     20     21
    33   3     20    774
    34   1     21     22
    35   2     21    692
    36   1     22    743
    37   3     22     55
    38   1     23    742
    39   3     23     56
    40   1     24     25
    41   1     24     29
    42   3     24     57
    43   1     25     26
    44   3     25     58
    45   1     26     27
    46   4     26     30
    47   1     27     28
    48   3     27     59
    49   1     28     29
    50   3     28     60
    51   4     34     30
    52   4     37     30
    53   4     48     30
    54   1     31     32
    55   1     31     36
    56   2     31    716
    57   1     32     33
    58   3     32     61
    59   1     33     34
    60   3     33     62
    61   1     34     35
    62   1     35     36
    63   3     35     63
    64   3     36     64
    65   1     37     38
    66   1     37     42
    67   1     38     39
    68   3     38     65
    69   1     39     40
    70   3     39     66
    71   1     40     41
    72   2     40    698
    73   1     41     42
    74   3     41     67
    75   3     42     68
    76   1     43     44
    77   1     43     48
    78   3     43     69
    79   1     44     45
    80   3     44     70
    81   1     45     46
    82   2     45    685
    83   1     46     47
    84   3     46     71
    85   1     47     48
    86   3     47     72
    87   3    740     54
    88   1     73    794
    89   1     73     78
    90   2     73    679
    91   1     74    793
    92   1     74     75
    93   3     74     79
    94   1     75    796
    95   3     75     80
    96   1     76    795
    97   1     76     77
    98   4     76     89
    99   1     77     78
   100   3     77     81
   101   3     78     82
   102   1     83     84
   103   1     83     88
   104   3     83    121
   105   1     84     85
   106   4     84     89
   107   1     85     86
   108   3     85    122
   109   1     86     87
   110   3     86    123
   111   1     87     88
   112   2     87    674
   113   3     88    124
   114   4     90     89
   115   4    101     89
   116   1     90     91
   117   1     90    815
   118   1     91    812
   119   3     91    125
   120   1     92    811
   121   1     92     93
   122   3     92    846
   123   1     93     94
   124   2     93    661
   125   1     94     95
   126   3     94    127
   127   1     95    810
   128   3     95    128
   129   1     96     97
   130   1     96    101
   131   3     96    129
   132   1     97     98
   133   3     97    130
   134   1     98     99
   135   4     98    102
   136   1     99    100
   137   3     99    131
   138   1    100    101
   139   3    100    132
   140   4    106    102
   141   4    109    102
   142   4    120    102
   143   1    103    104
   144   1    103    108
   145   2    103    715
   146   1    104    105
   147   3    104    133
   148   1    105    106
   149   3    105    134
   150   1    106    107
   151   1    107    108
   152   3    107    135
   153   3    108    136
   154   1    109    110
   155   1    109    114
   156   1    110    111
   157   3    110    137
   158   1    111    112
   159   3    111    138
   160   1    112    113
   161   2    112    667
   162   1    113    114
   163   3    113    139
   164   3    114    140
   165   1    115    116
   166   1    115    120
   167   3    115    141
   168   1    116    117
   169   3    116    142
   170   1    117    118
   171   2    117    655
   172   1    118    119
   173   3    118    143
   174   1    119    120
   175   3    119    144
   176   3    812    126
   177   1    145    146
   178   1    145    870
   179   2    145    673
   180   1    146    147
   181   3    146    151
   182   1    147    148
   183   3    147    152
   184   1    148    869
   185   4    148    161
   186   1    149    868
   187   1    149    150
   188   3    149    153
   189   1    150    865
   190   3    150    154
   191   1    155    876
   192   1    155    160
   193   3    155    193
   194   1    156    875
   195   1    156    157
   196   4    156   1601
   197   1    157    158
   198   3    157    194
   199   1    158    159
   200   3    158    195
   201   1    159    880
   202   2    159    680
   203   1    160    879
   204   3    160    196
   205   4   1596    161
   206   4    162    161
   207   4    893    161
   208   1    162    163
   209   1    162    167
   210   1    163    164
   211   3    163    197
   212   1    164    165
   213   3    164    198
   214   1    165    166
   215   2    165    637
   216   1    166    167
   217   3    166    199
   218   3    167    200
   219   1    168    169
   220   1    168    173
   221   3    168    201
   222   1    169    170
   223   3    169    202
   224   1    170    171
   225   4    170    174
   226   1    171    172
   227   3    171    203
   228   1    172    173
   229   3    172    924
   230   4    173    881
   231   4    178    174
   232   4    181    174
   233   4    192    174
   234   1    175    176
   235   1    175    180
   236   2    175    649
   237   1    176    177
   238   3    176    205
   239   1    177    178
   240   3    177    206
   241   1    178    179
   242   1    179    180
   243   3    179    207
   244   3    180    208
   245   1    181    182
   246   1    181    186
   247   1    182    183
   248   3    182    209
   249   1    183    184
   250   3    183    210
   251   1    184    905
   252   2    184    643
   253   1    185    904
   254   1    185    906
   255   3    185    211
   256   1    186    905
   257   3    186    212
   258   1    187    188
   259   1    187    192
   260   3    187    213
   261   1    188    189
   262   3    188    214
   263   1    189    190
   264   2    189    632
   265   1    190    191
   266   3    190    215
   267   1    191    192
   268   3    191    216
   269   3    892    204
   270   1    217    218
   271   1    217    222
   272   2    217    710
   273   1    218    219
   274   3    218    223
   275   1    219    220
   276   3    219    224
   277   1    220    221
   278   4    220    233
   279   1    221    222
   280   3    221    225
   281   3    222    226
   282   1    227    228
   283   1    227    232
   284   3    227    265
   285   1    228    229
   286   4    228    233
   287   1    229    230
   288   3    229    266
   289   1    230    231
   290   3    230    267
   291   1    231    232
   292   2    231    704
   293   3    232    268
   294   4    234    233
   295   4    245    233
   296   1    234    235
   297   1    234    239
   298   1    235    236
   299   3    235    269
   300   1    236    237
   301   3    236   1710
   302   1    237    238
   303   2    237    619
   304   1    238    239
   305   3    238    271
   306   3    239    272
   307   1    240    241
   308   1    240    965
   309   3    240    273
   310   1    241    242
   311   3    241    274
   312   1    242    243
   313   4    242    246
   314   1    243    964
   315   3    243    275
   316   1    244    963
   317   1    244    245
   318   3    244    276
   319   1    245    960
   320   4    250    246
   321   4    253    246
   322   4    264    246
   323   1    247    248
   324   1    247    252
   325   2    247    650
   326   1    248    249
   327   3    248    277
   328   1    249    250
   329   3    249    278
   330   1    250    251
   331   1    251    252
   332   3    251    279
   333   3    252    280
   334   1    253    254
   335   1    253    258
   336   1    254    255
   337   3    254   1721
   338   1    255    256
   339   3    255   1722
   340   1    256    257
   341   2    256    625
   342   1    257    258
   343   3    257    283
   344   3    258    284
   345   1    259    260
   346   1    259    264
   347   3    259    285
   348   1    260   1701
   349   3    260    286
   350   1    261   1700
   351   1    261    262
   352   2    261    613
   353   1    262   1703
   354   3    262    287
   355   1    263   1702
   356   1    263    264
   357   3    263    288
   358   3   1676    270
   359   3   1694    281
   360   3   1695    282
   361   1    289    290
   362   1    289    294
   363   2    289   1327
   364   1    290    291
   365   3    290   1015
   366   1    291    292
   367   3    291    296
   368   1    292    293
   369   4    292    305
   370   1    293    294
   371   3    293    297
   372   3    294    298
   373   3   1010    295
   374   1    299    300
   375   1    299    304
   376   3    299    337
   377   1    300    301
   378   4    300    305
   379   1    301    302
   380   3    301    338
   381   1    302    303
   382   3    302    339
   383   1    303    304
   384   2    303   2066
   385   3    304    340
   386   4    306    305
   387   4    317    305
   388   1    306    307
   389   1    306    311
   390   1    307    308
   391   3    307    341
   392   1    308    309
   393   3    308    342
   394   1    309    310
   395   2    309    662
   396   1    310    311
   397   3    310    343
   398   3    311    344
   399   1    312    313
   400   1    312    317
   401   3    312    345
   402   1    313    314
   403   3    313    346
   404   1    314    315
   405   4    314    318
   406   1    315    316
   407   3    315    347
   408   1    316    317
   409   3    316    348
   410   4    322    318
   411   4    325    318
   412   4    336    318
   413   1    319    320
   414   1    319    324
   415   2    319    602
   416   1    320    321
   417   3    320    349
   418   1    321    322
   419   3    321    350
   420   1    322    323
   421   1    323    324
   422   3    323    351
   423   3    324    352
   424   1    325    326
   425   1    325    330
   426   1    326    327
   427   3    326    353
   428   1    327    328
   429   3    327    354
   430   1    328    329
   431   2    328    595
   432   1    329    330
   433   3    329    355
   434   3    330    356
   435   1    331    332
   436   1    331    336
   437   3    331    357
   438   1    332    333
   439   3    332    358
   440   1    333    334
   441   2    333    656
   442   1    334    335
   443   3    334    359
   444   1    335    336
   445   3    335    360
   446   1    361    362
   447   1    361    366
   448   2    361    608
   449   1    362    363
   450   3    362   1087
   451   1    363    364
   452   3    363    368
   453   1    364    365
   454   4    364    377
   455   1    365    366
   456   3    365    369
   457   3    366    370
   458   3   1082    367
   459   1    371    372
   460   1    371    376
   461   3    371    409
   462   1    372    373
   463   4    372    377
   464   1    373    374
   465   3    373    410
   466   1    374    375
   467   3    374    411
   468   1    375    376
   469   2    375    644
   470   3    376    412
   471   4    378    377
   472   4    389    377
   473   1    378    379
   474   1    378    383
   475   1    379    380
   476   3    379    413
   477   1    380    381
   478   3    380    414
   479   1    381    382
   480   2    381    691
   481   1    382    383
   482   3    382    415
   483   3    383    416
   484   1    384    385
   485   1    384    389
   486   3    384    417
   487   1    385    386
   488   3    385    418
   489   1    386    387
   490   4    386    390
   491   1    387    388
   492   3    387    419
   493   1    388    389
   494   3    388    420
   495   4    394    390
   496   4    397    390
   497   4    408    390
   498   1    391    392
   499   1    391    396
   500   2    391    584
   501   1    392    393
   502   3    392    421
   503   1    393    394
   504   3    393    422
   505   1    394    395
   506   1    395    396
   507   3    395    423
   508   3    396    424
   509   1    397    398
   510   1    397    402
   511   1    398    399
   512   3    398    425
   513   1    399    400
   514   3    399    426
   515   1    400    401
   516   2    400   2030
   517   1    401    402
   518   3    401    427
   519   3    402    428
   520   1    403    404
   521   1    403    408
   522   3    403    429
   523   1    404    405
   524   3    404    430
   525   1    405    406
   526   2    405    686
   527   1    406    407
   528   3    406    431
   529   1    407    408
   530   3    407    432
   531   1    433    434
   532   1    433    438
   533   2    433    577
   534   1    434    435
   535   3    434    439
   536   1    435    436
   537   3    435    440
   538   1    436    437
   539   4    436    449
   540   1    437    438
   541   3    437    441
   542   3    438    442
   543   1    443    444
   544   1    443    448
   545   3    443    481
   546   1    444    445
   547   4    444   1889
   548   1    445    446
   549   3    445    482
   550   1    446    447
   551   3    446    483
   552   1    447    448
   553   2    447    697
   554   3    448    484
   555   4   1884    449
   556   4   1890    449
   557   4    461    449
   558   4    450   1889
   559   1    450    451
   560   1    450   1895
   561   1    451    452
   562   3    451    485
   563   1    452    453
   564   3    452    486
   565   1    453   1894
   566   2    453    638
   567   1    454   1893
   568   1    454    455
   569   3    454    487
   570   1    455   1890
   571   3    455    488
   572   1    456    457
   573   1    456    461
   574   3    456   1929
   575   1    457    458
   576   3    457   1930
   577   1    458    459
   578   4    458    462
   579   1    459    460
   580   3    459    491
   581   1    460    461
   582   3    460    492
   583   4    466    462
   584   4    469    462
   585   4   1920    462
   586   1    463    464
   587   1    463    468
   588   2    463    596
   589   1    464   1905
   590   3    464    493
   591   1    465   1904
   592   1    465    466
   593   3    465    494
   594   1    466   1907
   595   1    467   1906
   596   1    467    468
   597   3    467    495
   598   3    468    496
   599   1    469    470
   600   1    469    474
   601   1    470    471
   602   3    470    497
   603   1    471    472
   604   3    471    498
   605   1    472    473
   606   2    472    601
   607   1    473    474
   608   3    473    499
   609   3    474    500
   610   1    475    476
   611   1    475    480
   612   3    475   1941
   613   1    476    477
   614   3    476    502
   615   1    477    478
   616   2    477    631
   617   1    478    479
   618   3    478    503
   619   1    479    480
   620   3    479    504
   621   4    480   1902
   622   3   1896    489
   623   3   1897    490
   624   3   1915    501
   625   1    505    506
   626   1    505    510
   627   2    505    578
   628   1    506    507
   629   3    506    511
   630   1    507    508
   631   3    507    512
   632   1    508   1949
   633   4    508    521
   634   1    509   1948
   635   1    509   1950
   636   3    509    513
   637   1    510   1949
   638   3    510   1954
   639   3   1950    514
   640   1    515    516
   641   1    515    520
   642   3    515    553
   643   1    516    517
   644   4    516    521
   645   1    517    518
   646   3    517    554
   647   1    518    519
   648   3    518    555
   649   1    519    520
   650   2    519    668
   651   3    520    556
   652   4    522    521
   653   4   1973    521
   654   1    522    523
   655   1    522    527
   656   1    523    524
   657   3    523    557
   658   1    524    525
   659   3    524    558
   660   1    525    526
   661   2    525    620
   662   1    526    527
   663   3    526    559
   664   3    527   2000
   665   1    528    529
   666   1    528    533
   667   3    528    561
   668   1    529    530
   669   3    529    562
   670   1    530    531
   671   4    530    534
   672   1    531    532
   673   3    531    563
   674   1    532    533
   675   3    532    564
   676   4    533   1961
   677   4    538    534
   678   4    541    534
   679   4    552    534
   680   1    535    536
   681   1    535    540
   682   2    535    589
   683   1    536    537
   684   3    536    565
   685   1    537    538
   686   3    537    566
   687   1    538    539
   688   1    539    540
   689   3    539    567
   690   3    540    568
   691   1    541    542
   692   1    541    546
   693   1    542    543
   694   3    542    569
   695   1    543    544
   696   3    543    570
   697   1    544    545
   698   2    544    583
   699   1    545    546
   700   3    545    571
   701   3    546    572
   702   1    547    548
   703   1    547    552
   704   3    547    573
   705   1    548    549
   706   3    548    574
   707   1    549    550
   708   2    549   2054
   709   1    550    551
   710   3    550   2015
   711   1    551    552
   712   3    551    576
   713   3   1967    560
   714   3   1990    575
   715   5    577    578
   716   6    579    577
   717   6    580    577
   718   6    581    578
   719   6    582    578
   720   5    583    584
   721   6    585    583
   722   6    586    583
   723   6    587    584
   724   6    588    584
   725   5    589    590
   726   6    591    589
   727   6    592    589
   728   2   1840    590
   729   6    593    590
   730   6   2034    590
   731   6    594   2030
   732   5    595    596
   733   6    597    595
   734   6    598    595
   735   6    599    596
   736   6    600    596
   737   5    601    602
   738   6    603    601
   739   6    604    601
   740   6    605    602
   741   6    606    602
   742   2   1009    607
   743   5    607   1328
   744   6    609    607
   745   6    610    607
   746   5    608   1327
   747   6   1331    608
   748   6    612    608
   749   6    611   1328
   750   5    613    614
   751   6    615    613
   752   6    616    613
   753   2   1989    614
   754   6    617    614
   755   6   2058    614
   756   6    618   2054
   757   5    619   2060
   758   6    621    619
   759   6    622    619
   760   5    620   2059
   761   6    623    620
   762   6    624    620
   763   5    625    626
   764   6   2067    625
   765   6    628    625
   766   2   1743    626
   767   6    629    626
   768   6    630    626
   769   6    627   2065
   770   5    631    632
   771   6    633    631
   772   6    634    631
   773   6    635    632
   774   6    636    632
   775   5    637    638
   776   6    639    637
   777   6    640    637
   778   6    641    638
   779   6    642    638
   780   5    643    644
   781   6    645    643
   782   6   1366    643
   783   6    647    644
   784   6    648    644
   785   6    646   1363
   786   5    649    650
   787   6    651    649
   788   6    652    649
   789   6    653    650
   790   6    654    650
   791   5    655    656
   792   6    657    655
   793   6    658    655
   794   6    659    656
   795   6    660    656
   796   5    661    662
   797   6    663    661
   798   6    664    661
   799   6    665    662
   800   6    666    662
   801   5    667    668
   802   6    669    667
   803   6    670    667
   804   6    671    668
   805   6    672    668
   806   5    673    674
   807   6   1395    673
   808   6    676    673
   809   6    677    674
   810   6    678    674
   811   6    675   1393
   812   5    679    680
   813   6    681    679
   814   6   1402    679
   815   6   1403    680
   816   6    684    680
   817   6    682   1399
   818   6    683   1400
   819   5    685    686
   820   6    687    685
   821   6    688    685
   822   6    689    686
   823   6    690    686
   824   5    691    692
   825   6    693    691
   826   6    694    691
   827   6    695    692
   828   6    696    692
   829   5    697    698
   830   6    699    697
   831   6    700    697
   832   6    701    698
   833   6    702    698
   834   5    703    704
   835   6    705    703
   836   6    706    703
   837   6    707    704
   838   6    708    704
   839   2   1455    709
   840   5    709    710
   841   6    711    709
   842   6    712    709
   843   6    713    710
   844   6    714    710
   845   5    715    716
   846   6    717    715
   847   6    718    715
   848   6    719    716
   849   6    720    716
   850   1    721    722
   851   1    721    726
   852   2    721   1423
   853   1    722    723
   854   3    722    727
   855   1    723    724
   856   3    723    728
   857   1    724    725
   858   4    724    737
   859   1    725    726
   860   3    725    729
   861   3    726    730
   862   1    731    732
   863   1    731    736
   864   3    731    769
   865   1    732    733
   866   4    732    737
   867   1    733    734
   868   3    733    770
   869   1    734    735
   870   3    734    771
   871   1    735    736
   872   2    735   2869
   873   3    736    772
   874   4    738    737
   875   4    749    737
   876   1    738    739
   877   1    738    743
   878   3    739    773
   879   1    740    741
   880   1    741    742
   881   2    741   1412
   882   3    742    775
   883   3    743    776
   884   1    744    745
   885   1    744    749
   886   3    744    777
   887   1    745    746
   888   3    745    778
   889   1    746    747
   890   4    746    750
   891   1    747    748
   892   3    747    779
   893   1    748    749
   894   3    748    780
   895   4    754    750
   896   4    757    750
   897   4    768    750
   898   1    751    752
   899   1    751    756
   900   2    751   1436
   901   1    752    753
   902   3    752    781
   903   1    753    754
   904   3    753    782
   905   1    754    755
   906   1    755    756
   907   3    755    783
   908   3    756    784
   909   1    757    758
   910   1    757    762
   911   1    758    759
   912   3    758    785
   913   1    759    760
   914   3    759    786
   915   1    760    761
   916   2    760   1418
   917   1    761    762
   918   3    761    787
   919   3    762    788
   920   1    763    764
   921   1    763    768
   922   3    763    789
   923   1    764    765
   924   3    764    790
   925   1    765    766
   926   2    765   1405
   927   1    766    767
   928   3    766    791
   929   1    767    768
   930   3    767    792
   931   1    793    798
   932   2    793   1399
   933   1    794    795
   934   3    794    799
   935   3    795    800
   936   1    796    797
   937   4    796    809
   938   1    797    798
   939   3    797    801
   940   3    798    802
   941   1    803    804
   942   1    803    808
   943   3    803    841
   944   1    804    805
   945   4    804    809
   946   1    805    806
   947   3    805    842
   948   1    806    807
   949   3    806    843
   950   1    807    808
   951   2    807   1394
   952   3    808    844
   953   4    810    809
   954   4    821    809
   955   1    810    811
   956   3    811    845
   957   1    812    813
   958   1    813    814
   959   2    813   1381
   960   1    814    815
   961   3    814    847
   962   3    815    848
   963   1    816    817
   964   1    816    821
   965   3    816    849
   966   1    817    818
   967   3    817    850
   968   1    818    819
   969   4    818    822
   970   1    819    820
   971   3    819    851
   972   1    820    821
   973   3    820    852
   974   4    826    822
   975   4    829    822
   976   4    840    822
   977   1    823    824
   978   1    823    828
   979   2    823   1435
   980   1    824    825
   981   3    824    853
   982   1    825    826
   983   3    825    854
   984   1    826    827
   985   1    827    828
   986   3    827    855
   987   3    828    856
   988   1    829    830
   989   1    829    834
   990   1    830    831
   991   3    830    857
   992   1    831    832
   993   3    831    858
   994   1    832    833
   995   2    832   1387
   996   1    833    834
   997   3    833    859
   998   3    834    860
   999   1    835    836
  1000   1    835    840
  1001   3    835    861
  1002   1    836    837
  1003   3    836    862
  1004   1    837    838
  1005   2    837   1375
  1006   1    838    839
  1007   3    838    863
  1008   1    839    840
  1009   3    839    864
  1010   1    865    866
  1011   2    865   1393
  1012   1    866    867
  1013   3    866    871
  1014   1    867    868
  1015   3    867    872
  1016   4    868    881
  1017   1    869    870
  1018   3    869    873
  1019   3    870    874
  1020   1    875    880
  1021   3    875    913
  1022   1    876    877
  1023   4    876   2321
  1024   1    877    878
  1025   3    877    914
  1026   1    878    879
  1027   3    878    915
  1028   2    879   1400
  1029   3    880    916
  1030   4   2316    881
  1031   4    882    881
  1032   1    882    883
  1033   1    882    887
  1034   1    883    884
  1035   3    883    917
  1036   1    884    885
  1037   3    884    918
  1038   1    885    886
  1039   2    885   1357
  1040   1    886    887
  1041   3    886    919
  1042   3    887    920
  1043   1    888    889
  1044   1    888    893
  1045   3    888    921
  1046   1    889    890
  1047   3    889    922
  1048   1    890    891
  1049   4    890    894
  1050   1    891    892
  1051   3    891    923
  1052   1    892    893
  1053   4    898    894
  1054   4    901    894
  1055   4    912    894
  1056   1    895    896
  1057   1    895    900
  1058   2    895   1369
  1059   1    896    897
  1060   3    896    925
  1061   1    897    898
  1062   3    897    926
  1063   1    898    899
  1064   1    899    900
  1065   3    899    927
  1066   3    900    928
  1067   1    901    902
  1068   1    901    906
  1069   1    902    903
  1070   3    902    929
  1071   1    903    904
  1072   3    903    930
  1073   2    904   1363
  1074   3    905    931
  1075   3    906    932
  1076   1    907    908
  1077   1    907    912
  1078   3    907    933
  1079   1    908    909
  1080   3    908    934
  1081   1    909    910
  1082   2    909   1352
  1083   1    910    911
  1084   3    910    935
  1085   1    911    912
  1086   3    911    936
  1087   1    937    938
  1088   1    937    942
  1089   2    937   1430
  1090   1    938    939
  1091   3    938    943
  1092   1    939    940
  1093   3    939    944
  1094   1    940    941
  1095   4    940    953
  1096   1    941    942
  1097   3    941    945
  1098   3    942    946
  1099   1    947    948
  1100   1    947    952
  1101   3    947    985
  1102   1    948    949
  1103   4    948    953
  1104   1    949    950
  1105   3    949    986
  1106   1    950    951
  1107   3    950    987
  1108   1    951    952
  1109   2    951   1424
  1110   3    952    988
  1111   4    954    953
  1112   4    965    953
  1113   1    954    955
  1114   1    954    959
  1115   1    955    956
  1116   3    955    989
  1117   1    956    957
  1118   3    956   2430
  1119   1    957    958
  1120   2    957   1339
  1121   1    958    959
  1122   3    958    991
  1123   3    959    992
  1124   1    960    961
  1125   3    960    993
  1126   1    961    962
  1127   3    961    994
  1128   1    962    963
  1129   4    962    966
  1130   3    963    995
  1131   1    964    965
  1132   3    964    996
  1133   4    970    966
  1134   4    973    966
  1135   4    984    966
  1136   1    967    968
  1137   1    967    972
  1138   2    967   1370
  1139   1    968    969
  1140   3    968    997
  1141   1    969    970
  1142   3    969    998
  1143   1    970    971
  1144   1    971    972
  1145   3    971    999
  1146   3    972   1000
  1147   1    973    974
  1148   1    973    978
  1149   1    974    975
  1150   3    974   2441
  1151   1    975    976
  1152   3    975   2442
  1153   1    976    977
  1154   2    976   1345
  1155   1    977    978
  1156   3    977   1003
  1157   3    978   1004
  1158   1    979    980
  1159   1    979    984
  1160   3    979   1005
  1161   1    980   2421
  1162   3    980   1006
  1163   1    981   2420
  1164   1    981    982
  1165   2    981   1333
  1166   1    982   2423
  1167   3    982   1007
  1168   1    983   2422
  1169   1    983    984
  1170   3    983   1008
  1171   3   2396    990
  1172   3   2414   1001
  1173   3   2415   1002
  1174   1   1009   1010
  1175   1   1009   1014
  1176   1   1010   1011
  1177   1   1011   1012
  1178   3   1011   1016
  1179   1   1012   1013
  1180   4   1012   1025
  1181   1   1013   1014
  1182   3   1013   1017
  1183   3   1014   1018
  1184   1   1019   1020
  1185   1   1019   1024
  1186   3   1019   1057
  1187   1   1020   1021
  1188   4   1020   1025
  1189   1   1021   1022
  1190   3   1021   1058
  1191   1   1022   1023
  1192   3   1022   1059
  1193   1   1023   1024
  1194   2   1023   2786
  1195   3   1024   1060
  1196   4   1026   1025
  1197   4   1037   1025
  1198   1   1026   1027
  1199   1   1026   1031
  1200   1   1027   1028
  1201   3   1027   1061
  1202   1   1028   1029
  1203   3   1028   1062
  1204   1   1029   1030
  1205   2   1029   1382
  1206   1   1030   1031
  1207   3   1030   1063
  1208   3   1031   1064
  1209   1   1032   1033
  1210   1   1032   1037
  1211   3   1032   1065
  1212   1   1033   1034
  1213   3   1033   1066
  1214   1   1034   1035
  1215   4   1034   1038
  1216   1   1035   1036
  1217   3   1035   1067
  1218   1   1036   1037
  1219   3   1036   1068
  1220   4   1042   1038
  1221   4   1045   1038
  1222   4   1056   1038
  1223   1   1039   1040
  1224   1   1039   1044
  1225   2   1039   1322
  1226   1   1040   1041
  1227   3   1040   1069
  1228   1   1041   1042
  1229   3   1041   1070
  1230   1   1042   1043
  1231   1   1043   1044
  1232   3   1043   1071
  1233   3   1044   1072
  1234   1   1045   1046
  1235   1   1045   1050
  1236   1   1046   1047
  1237   3   1046   1073
  1238   1   1047   1048
  1239   3   1047   1074
  1240   1   1048   1049
  1241   2   1048   1315
  1242   1   1049   1050
  1243   3   1049   1075
  1244   3   1050   1076
  1245   1   1051   1052
  1246   1   1051   1056
  1247   3   1051   1077
  1248   1   1052   1053
  1249   3   1052   1078
  1250   1   1053   1054
  1251   2   1053   1376
  1252   1   1054   1055
  1253   3   1054   1079
  1254   1   1055   1056
  1255   3   1055   1080
  1256   1   1081   1082
  1257   1   1081   1086
  1258   2   1081   1328
  1259   1   1082   1083
  1260   1   1083   1084
  1261   3   1083   1088
  1262   1   1084   1085
  1263   4   1084   1097
  1264   1   1085   1086
  1265   3   1085   1089
  1266   3   1086   1090
  1267   1   1091   1092
  1268   1   1091   1096
  1269   3   1091   1129
  1270   1   1092   1093
  1271   4   1092   1097
  1272   1   1093   1094
  1273   3   1093   1130
  1274   1   1094   1095
  1275   3   1094   1131
  1276   1   1095   1096
  1277   2   1095   1364
  1278   3   1096   1132
  1279   4   1098   1097
  1280   4   1109   1097
  1281   1   1098   1099
  1282   1   1098   1103
  1283   1   1099   1100
  1284   3   1099   1133
  1285   1   1100   1101
  1286   3   1100   1134
  1287   1   1101   1102
  1288   2   1101   1411
  1289   1   1102   1103
  1290   3   1102   1135
  1291   3   1103   1136
  1292   1   1104   1105
  1293   1   1104   1109
  1294   3   1104   1137
  1295   1   1105   1106
  1296   3   1105   1138
  1297   1   1106   1107
  1298   4   1106   1110
  1299   1   1107   1108
  1300   3   1107   1139
  1301   1   1108   1109
  1302   3   1108   1140
  1303   4   1114   1110
  1304   4   1117   1110
  1305   4   1128   1110
  1306   1   1111   1112
  1307   1   1111   1116
  1308   2   1111   1304
  1309   1   1112   1113
  1310   3   1112   1141
  1311   1   1113   1114
  1312   3   1113   1142
  1313   1   1114   1115
  1314   1   1115   1116
  1315   3   1115   1143
  1316   3   1116   1144
  1317   1   1117   1118
  1318   1   1117   1122
  1319   1   1118   1119
  1320   3   1118   1145
  1321   1   1119   1120
  1322   3   1119   1146
  1323   1   1120   1121
  1324   2   1120   2750
  1325   1   1121   1122
  1326   3   1121   1147
  1327   3   1122   1148
  1328   1   1123   1124
  1329   1   1123   1128
  1330   3   1123   1149
  1331   1   1124   1125
  1332   3   1124   1150
  1333   1   1125   1126
  1334   2   1125   1406
  1335   1   1126   1127
  1336   3   1126   1151
  1337   1   1127   1128
  1338   3   1127   1152
  1339   1   1153   1154
  1340   1   1153   1158
  1341   2   1153   1297
  1342   1   1154   1155
  1343   3   1154   1159
  1344   1   1155   1156
  1345   3   1155   1160
  1346   1   1156   1157
  1347   4   1156   1169
  1348   1   1157   1158
  1349   3   1157   1161
  1350   3   1158   1162
  1351   1   1163   1164
  1352   1   1163   1168
  1353   3   1163   1201
  1354   1   1164   1165
  1355   4   1164   2609
  1356   1   1165   1166
  1357   3   1165   1202
  1358   1   1166   1167
  1359   3   1166   1203
  1360   1   1167   1168
  1361   2   1167   1417
  1362   3   1168   1204
  1363   4   2604   1169
  1364   4   2610   1169
  1365   4   1181   1169
  1366   4   1170   2609
  1367   1   1170   1171
  1368   1   1170   2615
  1369   1   1171   1172
  1370   3   1171   1205
  1371   1   1172   1173
  1372   3   1172   1206
  1373   1   1173   2614
  1374   2   1173   1358
  1375   1   1174   2613
  1376   1   1174   1175
  1377   3   1174   1207
  1378   1   1175   2610
  1379   3   1175   1208
  1380   1   1176   1177
  1381   1   1176   1181
  1382   3   1176   2649
  1383   1   1177   1178
  1384   3   1177   2650
  1385   1   1178   1179
  1386   4   1178   1182
  1387   1   1179   1180
  1388   3   1179   1211
  1389   1   1180   1181
  1390   3   1180   1212
  1391   4   1186   1182
  1392   4   1189   1182
  1393   4   2640   1182
  1394   1   1183   1184
  1395   1   1183   1188
  1396   2   1183   1316
  1397   1   1184   2625
  1398   3   1184   1213
  1399   1   1185   2624
  1400   1   1185   1186
  1401   3   1185   1214
  1402   1   1186   2627
  1403   1   1187   2626
  1404   1   1187   1188
  1405   3   1187   1215
  1406   3   1188   1216
  1407   1   1189   1190
  1408   1   1189   1194
  1409   1   1190   1191
  1410   3   1190   1217
  1411   1   1191   1192
  1412   3   1191   1218
  1413   1   1192   1193
  1414   2   1192   1321
  1415   1   1193   1194
  1416   3   1193   1219
  1417   3   1194   1220
  1418   1   1195   1196
  1419   1   1195   1200
  1420   3   1195   2661
  1421   1   1196   1197
  1422   3   1196   1222
  1423   1   1197   1198
  1424   2   1197   1351
  1425   1   1198   1199
  1426   3   1198   1223
  1427   1   1199   1200
  1428   3   1199   1224
  1429   4   1200   2622
  1430   3   2616   1209
  1431   3   2617   1210
  1432   3   2635   1221
  1433   1   1225   1226
  1434   1   1225   1230
  1435   2   1225   1298
  1436   1   1226   1227
  1437   3   1226   1231
  1438   1   1227   1228
  1439   3   1227   1232
  1440   1   1228   2669
  1441   4   1228   1241
  1442   1   1229   2668
  1443   1   1229   2670
  1444   3   1229   1233
  1445   1   1230   2669
  1446   3   1230   2674
  1447   3   2670   1234
  1448   1   1235   1236
  1449   1   1235   1240
  1450   3   1235   1273
  1451   1   1236   1237
  1452   4   1236   1241
  1453   1   1237   1238
  1454   3   1237   1274
  1455   1   1238   1239
  1456   3   1238   1275
  1457   1   1239   1240
  1458   2   1239   1388
  1459   3   1240   1276
  1460   4   1242   1241
  1461   4   2693   1241
  1462   1   1242   1243
  1463   1   1242   1247
  1464   1   1243   1244
  1465   3   1243   1277
  1466   1   1244   1245
  1467   3   1244   1278
  1468   1   1245   1246
  1469   2   1245   1340
  1470   1   1246   1247
  1471   3   1246   1279
  1472   3   1247   2720
  1473   1   1248   1249
  1474   1   1248   1253
  1475   3   1248   1281
  1476   1   1249   1250
  1477   3   1249   1282
  1478   1   1250   1251
  1479   4   1250   1254
  1480   1   1251   1252
  1481   3   1251   1283
  1482   1   1252   1253
  1483   3   1252   1284
  1484   4   1253   2681
  1485   4   1258   1254
  1486   4   1261   1254
  1487   4   1272   1254
  1488   1   1255   1256
  1489   1   1255   1260
  1490   2   1255   1309
  1491   1   1256   1257
  1492   3   1256   1285
  1493   1   1257   1258
  1494   3   1257   1286
  1495   1   1258   1259
  1496   1   1259   1260
  1497   3   1259   1287
  1498   3   1260   1288
  1499   1   1261   1262
  1500   1   1261   1266
  1501   1   1262   1263
  1502   3   1262   1289
  1503   1   1263   1264
  1504   3   1263   1290
  1505   1   1264   1265
  1506   2   1264   1303
  1507   1   1265   1266
  1508   3   1265   1291
  1509   3   1266   1292
  1510   1   1267   1268
  1511   1   1267   1272
  1512   3   1267   1293
  1513   1   1268   1269
  1514   3   1268   1294
  1515   1   1269   1270
  1516   2   1269   2774
  1517   1   1270   1271
  1518   3   1270   2735
  1519   1   1271   1272
  1520   3   1271   1296
  1521   3   2687   1280
  1522   3   2710   1295
  1523   5   1297   1298
  1524   6   1299   1297
  1525   6   1300   1297
  1526   6   1301   1298
  1527   6   1302   1298
  1528   5   1303   1304
  1529   6   1305   1303
  1530   6   1306   1303
  1531   6   1307   1304
  1532   6   1308   1304
  1533   5   1309   1310
  1534   6   1311   1309
  1535   6   1312   1309
  1536   2   2560   1310
  1537   6   1313   1310
  1538   6   2754   1310
  1539   6   1314   2750
  1540   5   1315   1316
  1541   6   1317   1315
  1542   6   1318   1315
  1543   6   1319   1316
  1544   6   1320   1316
  1545   5   1321   1322
  1546   6   1323   1321
  1547   6   1324   1321
  1548   6   1325   1322
  1549   6   1326   1322
  1550   6   1329   1327
  1551   6   1330   1327
  1552   6   1332   1328
  1553   5   1333   1334
  1554   6   1335   1333
  1555   6   1336   1333
  1556   2   2709   1334
  1557   6   1337   1334
  1558   6   2778   1334
  1559   6   1338   2774
  1560   5   1339   2780
  1561   6   1341   1339
  1562   6   1342   1339
  1563   5   1340   2779
  1564   6   1343   1340
  1565   6   1344   1340
  1566   5   1345   1346
  1567   6   2787   1345
  1568   6   1348   1345
  1569   2   2463   1346
  1570   6   1349   1346
  1571   6   1350   1346
  1572   6   1347   2785
  1573   5   1351   1352
  1574   6   1353   1351
  1575   6   1354   1351
  1576   6   1355   1352
  1577   6   1356   1352
  1578   5   1357   1358
  1579   6   1359   1357
  1580   6   1360   1357
  1581   6   1361   1358
  1582   6   1362   1358
  1583   5   1363   1364
  1584   6   1365   1363
  1585   6   1367   1364
  1586   6   1368   1364
  1587   5   1369   1370
  1588   6   1371   1369
  1589   6   1372   1369
  1590   6   1373   1370
  1591   6   1374   1370
  1592   5   1375   1376
  1593   6   1377   1375
  1594   6   1378   1375
  1595   6   1379   1376
  1596   6   1380   1376
  1597   5   1381   1382
  1598   6   1383   1381
  1599   6   1384   1381
  1600   6   1385   1382
  1601   6   1386   1382
  1602   5   1387   1388
  1603   6   1389   1387
  1604   6   1390   1387
  1605   6   1391   1388
  1606   6   1392   1388
  1607   5   1393   1394
  1608   6   1396   1393
  1609   6   1397   1394
  1610   6   1398   1394
  1611   5   1399   1400
  1612   6   1401   1399
  1613   6   1404   1400
  1614   5   1405   1406
  1615   6   1407   1405
  1616   6   1408   1405
  1617   6   1409   1406
  1618   6   1410   1406
  1619   5   1411   1412
  1620   6   1413   1411
  1621   6   1414   1411
  1622   6   1415   1412
  1623   6   1416   1412
  1624   5   1417   1418
  1625   6   1419   1417
  1626   6   1420   1417
  1627   6   1421   1418
  1628   6   1422   1418
  1629   5   1423   1424
  1630   6   1425   1423
  1631   6   1426   1423
  1632   6   1427   1424
  1633   6   1428   1424
  1634   2   2175   1429
  1635   5   1429   1430
  1636   6   1431   1429
  1637   6   1432   1429
  1638   6   1433   1430
  1639   6   1434   1430
  1640   5   1435   1436
  1641   6   1437   1435
  1642   6   1438   1435
  1643   6   1439   1436
  1644   6   1440   1436
  1645   1   1441   1442
  1646   1   1441   1446
  1647   2   1441   2143
  1648   1   1442   1443
  1649   3   1442   1447
  1650   1   1443   1444
  1651   3   1443   1448
  1652   1   1444   1445
  1653   4   1444   1457
  1654   1   1445   1446
  1655   3   1445   1449
  1656   3   1446   1450
  1657   1   1451   1452
  1658   1   1451   1456
  1659   3   1451   1489
  1660   1   1452   1453
  1661   4   1452   1457
  1662   1   1453   1454
  1663   3   1453   1490
  1664   1   1454   1455
  1665   3   1454   1491
  1666   1   1455   1456
  1667   3   1456   1492
  1668   4   1458   1457
  1669   4   1469   1457
  1670   1   1458   1459
  1671   1   1458   1463
  1672   1   1459   2180
  1673   3   1459   1493
  1674   1   1460   2179
  1675   1   1460   1461
  1676   3   1460   2214
  1677   1   1461   1462
  1678   2   1461   2132
  1679   1   1462   2183
  1680   3   1462   1495
  1681   1   1463   2182
  1682   3   1463   1496
  1683   1   1464   1465
  1684   1   1464   1469
  1685   3   1464   1497
  1686   1   1465   1466
  1687   3   1465   1498
  1688   1   1466   1467
  1689   4   1466   1470
  1690   1   1467   1468
  1691   3   1467   1499
  1692   1   1468   1469
  1693   3   1468   1500
  1694   4   1474   1470
  1695   4   1477   1470
  1696   4   1488   1470
  1697   1   1471   1472
  1698   1   1471   1476
  1699   2   1471   2156
  1700   1   1472   1473
  1701   3   1472   1501
  1702   1   1473   1474
  1703   3   1473   1502
  1704   1   1474   1475
  1705   1   1475   1476
  1706   3   1475   1503
  1707   3   1476   1504
  1708   1   1477   1478
  1709   1   1477   1482
  1710   1   1478   1479
  1711   3   1478   1505
  1712   1   1479   1480
  1713   3   1479   1506
  1714   1   1480   1481
  1715   2   1480   2138
  1716   1   1481   1482
  1717   3   1481   1507
  1718   3   1482   1508
  1719   1   1483   1484
  1720   1   1483   1488
  1721   3   1483   1509
  1722   1   1484   1485
  1723   3   1484   1510
  1724   1   1485   1486
  1725   2   1485   2125
  1726   1   1486   1487
  1727   3   1486   1511
  1728   1   1487   1488
  1729   3   1487   1512
  1730   3   2180   1494
  1731   1   1513   2234
  1732   1   1513   1518
  1733   2   1513   2119
  1734   1   1514   2233
  1735   1   1514   1515
  1736   3   1514   1519
  1737   1   1515   2236
  1738   3   1515   1520
  1739   1   1516   2235
  1740   1   1516   1517
  1741   4   1516   1529
  1742   1   1517   1518
  1743   3   1517   1521
  1744   3   1518   1522
  1745   1   1523   1524
  1746   1   1523   1528
  1747   3   1523   1561
  1748   1   1524   1525
  1749   4   1524   1529
  1750   1   1525   1526
  1751   3   1525   1562
  1752   1   1526   1527
  1753   3   1526   1563
  1754   1   1527   1528
  1755   2   1527   2114
  1756   3   1528   1564
  1757   4   1530   1529
  1758   4   1541   1529
  1759   1   1530   1531
  1760   1   1530   2255
  1761   1   1531   2252
  1762   3   1531   1565
  1763   1   1532   2251
  1764   1   1532   1533
  1765   3   1532   2286
  1766   1   1533   1534
  1767   2   1533   2101
  1768   1   1534   1535
  1769   3   1534   1567
  1770   1   1535   2250
  1771   3   1535   1568
  1772   1   1536   1537
  1773   1   1536   1541
  1774   3   1536   1569
  1775   1   1537   1538
  1776   3   1537   1570
  1777   1   1538   1539
  1778   4   1538   1542
  1779   1   1539   1540
  1780   3   1539   1571
  1781   1   1540   1541
  1782   3   1540   1572
  1783   4   1546   1542
  1784   4   1549   1542
  1785   4   1560   1542
  1786   1   1543   1544
  1787   1   1543   1548
  1788   2   1543   2155
  1789   1   1544   1545
  1790   3   1544   1573
  1791   1   1545   1546
  1792   3   1545   1574
  1793   1   1546   1547
  1794   1   1547   1548
  1795   3   1547   1575
  1796   3   1548   1576
  1797   1   1549   1550
  1798   1   1549   1554
  1799   1   1550   1551
  1800   3   1550   1577
  1801   1   1551   1552
  1802   3   1551   1578
  1803   1   1552   1553
  1804   2   1552   2107
  1805   1   1553   1554
  1806   3   1553   1579
  1807   3   1554   1580
  1808   1   1555   1556
  1809   1   1555   1560
  1810   3   1555   1581
  1811   1   1556   1557
  1812   3   1556   1582
  1813   1   1557   1558
  1814   2   1557   2095
  1815   1   1558   1559
  1816   3   1558   1583
  1817   1   1559   1560
  1818   3   1559   1584
  1819   3   2252   1566
  1820   1   1585   1586
  1821   1   1585   2310
  1822   2   1585   2113
  1823   1   1586   1587
  1824   3   1586   1591
  1825   1   1587   1588
  1826   3   1587   1592
  1827   1   1588   2309
  1828   4   1588   1601
  1829   1   1589   2308
  1830   1   1589   1590
  1831   3   1589   1593
  1832   1   1590   2305
  1833   3   1590   1594
  1834   1   1595   2316
  1835   1   1595   1600
  1836   3   1595   1633
  1837   1   1596   2315
  1838   1   1596   1597
  1839   1   1597   1598
  1840   3   1597   1634
  1841   1   1598   1599
  1842   3   1598   1635
  1843   1   1599   2320
  1844   2   1599   2120
  1845   1   1600   2319
  1846   3   1600   1636
  1847   4   1602   1601
  1848   4   2333   1601
  1849   1   1602   1603
  1850   1   1602   1607
  1851   1   1603   1604
  1852   3   1603   1637
  1853   1   1604   1605
  1854   3   1604   1638
  1855   1   1605   1606
  1856   2   1605   2077
  1857   1   1606   1607
  1858   3   1606   1639
  1859   3   1607   1640
  1860   1   1608   1609
  1861   1   1608   1613
  1862   3   1608   1641
  1863   1   1609   1610
  1864   3   1609   1642
  1865   1   1610   1611
  1866   4   1610   1614
  1867   1   1611   1612
  1868   3   1611   1643
  1869   1   1612   1613
  1870   3   1612   2364
  1871   4   1613   2321
  1872   4   1618   1614
  1873   4   1621   1614
  1874   4   1632   1614
  1875   1   1615   1616
  1876   1   1615   1620
  1877   2   1615   2089
  1878   1   1616   1617
  1879   3   1616   1645
  1880   1   1617   1618
  1881   3   1617   1646
  1882   1   1618   1619
  1883   1   1619   1620
  1884   3   1619   1647
  1885   3   1620   1648
  1886   1   1621   1622
  1887   1   1621   1626
  1888   1   1622   1623
  1889   3   1622   1649
  1890   1   1623   1624
  1891   3   1623   1650
  1892   1   1624   2345
  1893   2   1624   2083
  1894   1   1625   2344
  1895   1   1625   2346
  1896   3   1625   1651
  1897   1   1626   2345
  1898   3   1626   1652
  1899   1   1627   1628
  1900   1   1627   1632
  1901   3   1627   1653
  1902   1   1628   1629
  1903   3   1628   1654
  1904   1   1629   1630
  1905   2   1629   2072
  1906   1   1630   1631
  1907   3   1630   1655
  1908   1   1631   1632
  1909   3   1631   1656
  1910   3   2332   1644
  1911   1   1657   1658
  1912   1   1657   1662
  1913   2   1657   2150
  1914   1   1658   1659
  1915   3   1658   1663
  1916   1   1659   1660
  1917   3   1659   1664
  1918   1   1660   1661
  1919   4   1660   1673
  1920   1   1661   1662
  1921   3   1661   1665
  1922   3   1662   1666
  1923   1   1667   1668
  1924   1   1667   1672
  1925   3   1667   1705
  1926   1   1668   1669
  1927   4   1668   1673
  1928   1   1669   1670
  1929   3   1669   1706
  1930   1   1670   1671
  1931   3   1670   1707
  1932   1   1671   1672
  1933   2   1671   2144
  1934   3   1672   1708
  1935   4   1674   1673
  1936   4   1685   1673
  1937   1   1674   1675
  1938   1   1674   1679
  1939   1   1675   1676
  1940   3   1675   1709
  1941   1   1676   1677
  1942   1   1677   1678
  1943   2   1677   2059
  1944   1   1678   1679
  1945   3   1678   1711
  1946   3   1679   1712
  1947   1   1680   1681
  1948   1   1680   2405
  1949   3   1680   1713
  1950   1   1681   1682
  1951   3   1681   1714
  1952   1   1682   1683
  1953   4   1682   1686
  1954   1   1683   2404
  1955   3   1683   1715
  1956   1   1684   2403
  1957   1   1684   1685
  1958   3   1684   1716
  1959   1   1685   2400
  1960   4   1690   1686
  1961   4   1693   1686
  1962   4   1704   1686
  1963   1   1687   1688
  1964   1   1687   1692
  1965   2   1687   2090
  1966   1   1688   1689
  1967   3   1688   1717
  1968   1   1689   1690
  1969   3   1689   1718
  1970   1   1690   1691
  1971   1   1691   1692
  1972   3   1691   1719
  1973   3   1692   1720
  1974   1   1693   1694
  1975   1   1693   1698
  1976   1   1694   1695
  1977   1   1695   1696
  1978   1   1696   1697
  1979   2   1696   2065
  1980   1   1697   1698
  1981   3   1697   1723
  1982   3   1698   1724
  1983   1   1699   1700
  1984   1   1699   1704
  1985   3   1699   1725
  1986   3   1700   1726
  1987   1   1701   1702
  1988   2   1701   2053
  1989   3   1702   1727
  1990   1   1703   1704
  1991   3   1703   1728
  1992   1   1729   1730
  1993   1   1729   1734
  1994   2   1729   2767
  1995   1   1730   1731
  1996   3   1730   2455
  1997   1   1731   1732
  1998   3   1731   1736
  1999   1   1732   1733
  2000   4   1732   1745
  2001   1   1733   1734
  2002   3   1733   1737
  2003   3   1734   1738
  2004   3   2450   1735
  2005   1   1739   1740
  2006   1   1739   1744
  2007   3   1739   1777
  2008   1   1740   1741
  2009   4   1740   1745
  2010   1   1741   1742
  2011   3   1741   1778
  2012   1   1742   1743
  2013   3   1742   1779
  2014   1   1743   1744
  2015   3   1744   1780
  2016   4   1746   1745
  2017   4   1757   1745
  2018   1   1746   1747
  2019   1   1746   1751
  2020   1   1747   1748
  2021   3   1747   1781
  2022   1   1748   1749
  2023   3   1748   1782
  2024   1   1749   1750
  2025   2   1749   2102
  2026   1   1750   1751
  2027   3   1750   1783
  2028   3   1751   1784
  2029   1   1752   1753
  2030   1   1752   1757
  2031   3   1752   1785
  2032   1   1753   1754
  2033   3   1753   1786
  2034   1   1754   1755
  2035   4   1754   1758
  2036   1   1755   1756
  2037   3   1755   1787
  2038   1   1756   1757
  2039   3   1756   1788
  2040   4   1762   1758
  2041   4   1765   1758
  2042   4   1776   1758
  2043   1   1759   1760
  2044   1   1759   1764
  2045   2   1759   2042
  2046   1   1760   1761
  2047   3   1760   1789
  2048   1   1761   1762
  2049   3   1761   1790
  2050   1   1762   1763
  2051   1   1763   1764
  2052   3   1763   1791
  2053   3   1764   1792
  2054   1   1765   1766
  2055   1   1765   1770
  2056   1   1766   1767
  2057   3   1766   1793
  2058   1   1767   1768
  2059   3   1767   1794
  2060   1   1768   1769
  2061   2   1768   2035
  2062   1   1769   1770
  2063   3   1769   1795
  2064   3   1770   1796
  2065   1   1771   1772
  2066   1   1771   1776
  2067   3   1771   1797
  2068   1   1772   1773
  2069   3   1772   1798
  2070   1   1773   1774
  2071   2   1773   2096
  2072   1   1774   1775
  2073   3   1774   1799
  2074   1   1775   1776
  2075   3   1775   1800
  2076   1   1801   1802
  2077   1   1801   1806
  2078   2   1801   2048
  2079   1   1802   1803
  2080   3   1802   2527
  2081   1   1803   1804
  2082   3   1803   1808
  2083   1   1804   1805
  2084   4   1804   1817
  2085   1   1805   1806
  2086   3   1805   1809
  2087   3   1806   1810
  2088   3   2522   1807
  2089   1   1811   1812
  2090   1   1811   1816
  2091   3   1811   1849
  2092   1   1812   1813
  2093   4   1812   1817
  2094   1   1813   1814
  2095   3   1813   1850
  2096   1   1814   1815
  2097   3   1814   1851
  2098   1   1815   1816
  2099   2   1815   2084
  2100   3   1816   1852
  2101   4   1818   1817
  2102   4   1829   1817
  2103   1   1818   1819
  2104   1   1818   1823
  2105   1   1819   1820
  2106   3   1819   1853
  2107   1   1820   1821
  2108   3   1820   1854
  2109   1   1821   1822
  2110   2   1821   2131
  2111   1   1822   1823
  2112   3   1822   1855
  2113   3   1823   1856
  2114   1   1824   1825
  2115   1   1824   1829
  2116   3   1824   1857
  2117   1   1825   1826
  2118   3   1825   1858
  2119   1   1826   1827
  2120   4   1826   1830
  2121   1   1827   1828
  2122   3   1827   1859
  2123   1   1828   1829
  2124   3   1828   1860
  2125   4   1834   1830
  2126   4   1837   1830
  2127   4   1848   1830
  2128   1   1831   1832
  2129   1   1831   1836
  2130   2   1831   2024
  2131   1   1832   1833
  2132   3   1832   1861
  2133   1   1833   1834
  2134   3   1833   1862
  2135   1   1834   1835
  2136   1   1835   1836
  2137   3   1835   1863
  2138   3   1836   1864
  2139   1   1837   1838
  2140   1   1837   1842
  2141   1   1838   1839
  2142   3   1838   1865
  2143   1   1839   1840
  2144   3   1839   1866
  2145   1   1840   1841
  2146   1   1841   1842
  2147   3   1841   1867
  2148   3   1842   1868
  2149   1   1843   1844
  2150   1   1843   1848
  2151   3   1843   1869
  2152   1   1844   1845
  2153   3   1844   1870
  2154   1   1845   1846
  2155   2   1845   2126
  2156   1   1846   1847
  2157   3   1846   1871
  2158   1   1847   1848
  2159   3   1847   1872
  2160   1   1873   1874
  2161   1   1873   1878
  2162   2   1873   2017
  2163   1   1874   1875
  2164   3   1874   1879
  2165   1   1875   1876
  2166   3   1875   1880
  2167   1   1876   1877
  2168   4   1876   1889
  2169   1   1877   1878
  2170   3   1877   1881
  2171   3   1878   1882
  2172   1   1883   1884
  2173   1   1883   1888
  2174   3   1883   1921
  2175   1   1884   1885
  2176   1   1885   1886
  2177   3   1885   1922
  2178   1   1886   1887
  2179   3   1886   1923
  2180   1   1887   1888
  2181   2   1887   2137
  2182   3   1888   1924
  2183   4   1901   1889
  2184   1   1890   1891
  2185   1   1891   1892
  2186   3   1891   1925
  2187   1   1892   1893
  2188   3   1892   1926
  2189   2   1893   2078
  2190   1   1894   1895
  2191   3   1894   1927
  2192   3   1895   1928
  2193   1   1896   1897
  2194   1   1896   1901
  2195   1   1897   1898
  2196   1   1898   1899
  2197   4   1898   1902
  2198   1   1899   1900
  2199   3   1899   1931
  2200   1   1900   1901
  2201   3   1900   1932
  2202   4   1906   1902
  2203   4   1909   1902
  2204   1   1903   1904
  2205   1   1903   1908
  2206   2   1903   2036
  2207   3   1904   1933
  2208   1   1905   1906
  2209   3   1905   1934
  2210   1   1907   1908
  2211   3   1907   1935
  2212   3   1908   1936
  2213   1   1909   1910
  2214   1   1909   1914
  2215   1   1910   1911
  2216   3   1910   1937
  2217   1   1911   1912
  2218   3   1911   1938
  2219   1   1912   1913
  2220   2   1912   2041
  2221   1   1913   1914
  2222   3   1913   1939
  2223   3   1914   1940
  2224   1   1915   1916
  2225   1   1915   1920
  2226   1   1916   1917
  2227   3   1916   1942
  2228   1   1917   1918
  2229   2   1917   2071
  2230   1   1918   1919
  2231   3   1918   1943
  2232   1   1919   1920
  2233   3   1919   1944
  2234   1   1945   1946
  2235   1   1945   1950
  2236   2   1945   2018
  2237   1   1946   1947
  2238   3   1946   1951
  2239   1   1947   1948
  2240   3   1947   1952
  2241   4   1948   1961
  2242   3   1949   1953
  2243   1   1955   1956
  2244   1   1955   1960
  2245   3   1955   1993
  2246   1   1956   1957
  2247   4   1956   1961
  2248   1   1957   1958
  2249   3   1957   1994
  2250   1   1958   1959
  2251   3   1958   1995
  2252   1   1959   1960
  2253   2   1959   2108
  2254   3   1960   1996
  2255   4   1962   1961
  2256   1   1962   1963
  2257   1   1962   1967
  2258   1   1963   1964
  2259   3   1963   1997
  2260   1   1964   1965
  2261   3   1964   1998
  2262   1   1965   1966
  2263   2   1965   2060
  2264   1   1966   1967
  2265   3   1966   1999
  2266   1   1968   1969
  2267   1   1968   1973
  2268   3   1968   2001
  2269   1   1969   1970
  2270   3   1969   2002
  2271   1   1970   1971
  2272   4   1970   1974
  2273   1   1971   1972
  2274   3   1971   2003
  2275   1   1972   1973
  2276   3   1972   2004
  2277   4   1978   1974
  2278   4   1981   1974
  2279   4   1992   1974
  2280   1   1975   1976
  2281   1   1975   1980
  2282   2   1975   2029
  2283   1   1976   1977
  2284   3   1976   2005
  2285   1   1977   1978
  2286   3   1977   2006
  2287   1   1978   1979
  2288   1   1979   1980
  2289   3   1979   2007
  2290   3   1980   2008
  2291   1   1981   1982
  2292   1   1981   1986
  2293   1   1982   1983
  2294   3   1982   2009
  2295   1   1983   1984
  2296   3   1983   2010
  2297   1   1984   1985
  2298   2   1984   2023
  2299   1   1985   1986
  2300   3   1985   2011
  2301   3   1986   2012
  2302   1   1987   1988
  2303   1   1987   1992
  2304   3   1987   2013
  2305   1   1988   1989
  2306   3   1988   2014
  2307   1   1989   1990
  2308   1   1990   1991
  2309   1   1991   1992
  2310   3   1991   2016
  2311   5   2017   2018
  2312   6   2019   2017
  2313   6   2020   2017
  2314   6   2021   2018
  2315   6   2022   2018
  2316   5   2023   2024
  2317   6   2025   2023
  2318   6   2026   2023
  2319   6   2027   2024
  2320   6   2028   2024
  2321   5   2029   2030
  2322   6   2031   2029
  2323   6   2032   2029
  2324   6   2033   2030
  2325   5   2035   2036
  2326   6   2037   2035
  2327   6   2038   2035
  2328   6   2039   2036
  2329   6   2040   2036
  2330   5   2041   2042
  2331   6   2043   2041
  2332   6   2044   2041
  2333   6   2045   2042
  2334   6   2046   2042
  2335   2   2449   2047
  2336   5   2047   2768
  2337   6   2049   2047
  2338   6   2050   2047
  2339   5   2048   2767
  2340   6   2771   2048
  2341   6   2052   2048
  2342   6   2051   2768
  2343   5   2053   2054
  2344   6   2055   2053
  2345   6   2056   2053
  2346   6   2057   2054
  2347   6   2061   2059
  2348   6   2062   2059
  2349   6   2063   2060
  2350   6   2064   2060
  2351   5   2065   2066
  2352   6   2068   2065
  2353   6   2069   2066
  2354   6   2070   2066
  2355   5   2071   2072
  2356   6   2073   2071
  2357   6   2074   2071
  2358   6   2075   2072
  2359   6   2076   2072
  2360   5   2077   2078
  2361   6   2079   2077
  2362   6   2080   2077
  2363   6   2081   2078
  2364   6   2082   2078
  2365   5   2083   2084
  2366   6   2085   2083
  2367   6   2806   2083
  2368   6   2087   2084
  2369   6   2088   2084
  2370   6   2086   2803
  2371   5   2089   2090
  2372   6   2091   2089
  2373   6   2092   2089
  2374   6   2093   2090
  2375   6   2094   2090
  2376   5   2095   2096
  2377   6   2097   2095
  2378   6   2098   2095
  2379   6   2099   2096
  2380   6   2100   2096
  2381   5   2101   2102
  2382   6   2103   2101
  2383   6   2104   2101
  2384   6   2105   2102
  2385   6   2106   2102
  2386   5   2107   2108
  2387   6   2109   2107
  2388   6   2110   2107
  2389   6   2111   2108
  2390   6   2112   2108
  2391   5   2113   2114
  2392   6   2835   2113
  2393   6   2116   2113
  2394   6   2117   2114
  2395   6   2118   2114
  2396   6   2115   2833
  2397   5   2119   2120
  2398   6   2121   2119
  2399   6   2842   2119
  2400   6   2843   2120
  2401   6   2124   2120
  2402   6   2122   2839
  2403   6   2123   2840
  2404   5   2125   2126
  2405   6   2127   2125
  2406   6   2128   2125
  2407   6   2129   2126
  2408   6   2130   2126
  2409   5   2131   2132
  2410   6   2133   2131
  2411   6   2134   2131
  2412   6   2135   2132
  2413   6   2136   2132
  2414   5   2137   2138
  2415   6   2139   2137
  2416   6   2140   2137
  2417   6   2141   2138
  2418   6   2142   2138
  2419   5   2143   2144
  2420   6   2145   2143
  2421   6   2146   2143
  2422   6   2147   2144
  2423   6   2148   2144
  2424   5   2149   2150
  2425   6   2151   2149
  2426   6   2152   2149
  2427   6   2153   2150
  2428   6   2154   2150
  2429   5   2155   2156
  2430   6   2157   2155
  2431   6   2158   2155
  2432   6   2159   2156
  2433   6   2160   2156
  2434   1   2161   2162
  2435   1   2161   2166
  2436   2   2161   2863
  2437   1   2162   2163
  2438   3   2162   2167
  2439   1   2163   2164
  2440   3   2163   2168
  2441   1   2164   2165
  2442   4   2164   2177
  2443   1   2165   2166
  2444   3   2165   2169
  2445   3   2166   2170
  2446   1   2171   2172
  2447   1   2171   2176
  2448   3   2171   2209
  2449   1   2172   2173
  2450   4   2172   2177
  2451   1   2173   2174
  2452   3   2173   2210
  2453   1   2174   2175
  2454   3   2174   2211
  2455   1   2175   2176
  2456   3   2176   2212
  2457   4   2178   2177
  2458   4   2189   2177
  2459   1   2178   2179
  2460   1   2178   2183
  2461   3   2179   2213
  2462   1   2180   2181
  2463   1   2181   2182
  2464   2   2181   2852
  2465   3   2182   2215
  2466   3   2183   2216
  2467   1   2184   2185
  2468   1   2184   2189
  2469   3   2184   2217
  2470   1   2185   2186
  2471   3   2185   2218
  2472   1   2186   2187
  2473   4   2186   2190
  2474   1   2187   2188
  2475   3   2187   2219
  2476   1   2188   2189
  2477   3   2188   2220
  2478   4   2194   2190
  2479   4   2197   2190
  2480   4   2208   2190
  2481   1   2191   2192
  2482   1   2191   2196
  2483   2   2191   2876
  2484   1   2192   2193
  2485   3   2192   2221
  2486   1   2193   2194
  2487   3   2193   2222
  2488   1   2194   2195
  2489   1   2195   2196
  2490   3   2195   2223
  2491   3   2196   2224
  2492   1   2197   2198
  2493   1   2197   2202
  2494   1   2198   2199
  2495   3   2198   2225
  2496   1   2199   2200
  2497   3   2199   2226
  2498   1   2200   2201
  2499   2   2200   2858
  2500   1   2201   2202
  2501   3   2201   2227
  2502   3   2202   2228
  2503   1   2203   2204
  2504   1   2203   2208
  2505   3   2203   2229
  2506   1   2204   2205
  2507   3   2204   2230
  2508   1   2205   2206
  2509   2   2205   2845
  2510   1   2206   2207
  2511   3   2206   2231
  2512   1   2207   2208
  2513   3   2207   2232
  2514   1   2233   2238
  2515   2   2233   2839
  2516   1   2234   2235
  2517   3   2234   2239
  2518   3   2235   2240
  2519   1   2236   2237
  2520   4   2236   2249
  2521   1   2237   2238
  2522   3   2237   2241
  2523   3   2238   2242
  2524   1   2243   2244
  2525   1   2243   2248
  2526   3   2243   2281
  2527   1   2244   2245
  2528   4   2244   2249
  2529   1   2245   2246
  2530   3   2245   2282
  2531   1   2246   2247
  2532   3   2246   2283
  2533   1   2247   2248
  2534   2   2247   2834
  2535   3   2248   2284
  2536   4   2250   2249
  2537   4   2261   2249
  2538   1   2250   2251
  2539   3   2251   2285
  2540   1   2252   2253
  2541   1   2253   2254
  2542   2   2253   2821
  2543   1   2254   2255
  2544   3   2254   2287
  2545   3   2255   2288
  2546   1   2256   2257
  2547   1   2256   2261
  2548   3   2256   2289
  2549   1   2257   2258
  2550   3   2257   2290
  2551   1   2258   2259
  2552   4   2258   2262
  2553   1   2259   2260
  2554   3   2259   2291
  2555   1   2260   2261
  2556   3   2260   2292
  2557   4   2266   2262
  2558   4   2269   2262
  2559   4   2280   2262
  2560   1   2263   2264
  2561   1   2263   2268
  2562   2   2263   2875
  2563   1   2264   2265
  2564   3   2264   2293
  2565   1   2265   2266
  2566   3   2265   2294
  2567   1   2266   2267
  2568   1   2267   2268
  2569   3   2267   2295
  2570   3   2268   2296
  2571   1   2269   2270
  2572   1   2269   2274
  2573   1   2270   2271
  2574   3   2270   2297
  2575   1   2271   2272
  2576   3   2271   2298
  2577   1   2272   2273
  2578   2   2272   2827
  2579   1   2273   2274
  2580   3   2273   2299
  2581   3   2274   2300
  2582   1   2275   2276
  2583   1   2275   2280
  2584   3   2275   2301
  2585   1   2276   2277
  2586   3   2276   2302
  2587   1   2277   2278
  2588   2   2277   2815
  2589   1   2278   2279
  2590   3   2278   2303
  2591   1   2279   2280
  2592   3   2279   2304
  2593   1   2305   2306
  2594   2   2305   2833
  2595   1   2306   2307
  2596   3   2306   2311
  2597   1   2307   2308
  2598   3   2307   2312
  2599   4   2308   2321
  2600   1   2309   2310
  2601   3   2309   2313
  2602   3   2310   2314
  2603   1   2315   2320
  2604   3   2315   2353
  2605   1   2316   2317
  2606   1   2317   2318
  2607   3   2317   2354
  2608   1   2318   2319
  2609   3   2318   2355
  2610   2   2319   2840
  2611   3   2320   2356
  2612   4   2322   2321
  2613   1   2322   2323
  2614   1   2322   2327
  2615   1   2323   2324
  2616   3   2323   2357
  2617   1   2324   2325
  2618   3   2324   2358
  2619   1   2325   2326
  2620   2   2325   2797
  2621   1   2326   2327
  2622   3   2326   2359
  2623   3   2327   2360
  2624   1   2328   2329
  2625   1   2328   2333
  2626   3   2328   2361
  2627   1   2329   2330
  2628   3   2329   2362
  2629   1   2330   2331
  2630   4   2330   2334
  2631   1   2331   2332
  2632   3   2331   2363
  2633   1   2332   2333
  2634   4   2338   2334
  2635   4   2341   2334
  2636   4   2352   2334
  2637   1   2335   2336
  2638   1   2335   2340
  2639   2   2335   2809
  2640   1   2336   2337
  2641   3   2336   2365
  2642   1   2337   2338
  2643   3   2337   2366
  2644   1   2338   2339
  2645   1   2339   2340
  2646   3   2339   2367
  2647   3   2340   2368
  2648   1   2341   2342
  2649   1   2341   2346
  2650   1   2342   2343
  2651   3   2342   2369
  2652   1   2343   2344
  2653   3   2343   2370
  2654   2   2344   2803
  2655   3   2345   2371
  2656   3   2346   2372
  2657   1   2347   2348
  2658   1   2347   2352
  2659   3   2347   2373
  2660   1   2348   2349
  2661   3   2348   2374
  2662   1   2349   2350
  2663   2   2349   2792
  2664   1   2350   2351
  2665   3   2350   2375
  2666   1   2351   2352
  2667   3   2351   2376
  2668   1   2377   2378
  2669   1   2377   2382
  2670   2   2377   2870
  2671   1   2378   2379
  2672   3   2378   2383
  2673   1   2379   2380
  2674   3   2379   2384
  2675   1   2380   2381
  2676   4   2380   2393
  2677   1   2381   2382
  2678   3   2381   2385
  2679   3   2382   2386
  2680   1   2387   2388
  2681   1   2387   2392
  2682   3   2387   2425
  2683   1   2388   2389
  2684   4   2388   2393
  2685   1   2389   2390
  2686   3   2389   2426
  2687   1   2390   2391
  2688   3   2390   2427
  2689   1   2391   2392
  2690   2   2391   2864
  2691   3   2392   2428
  2692   4   2394   2393
  2693   4   2405   2393
  2694   1   2394   2395
  2695   1   2394   2399
  2696   1   2395   2396
  2697   3   2395   2429
  2698   1   2396   2397
  2699   1   2397   2398
  2700   2   2397   2779
  2701   1   2398   2399
  2702   3   2398   2431
  2703   3   2399   2432
  2704   1   2400   2401
  2705   3   2400   2433
  2706   1   2401   2402
  2707   3   2401   2434
  2708   1   2402   2403
  2709   4   2402   2406
  2710   3   2403   2435
  2711   1   2404   2405
  2712   3   2404   2436
  2713   4   2410   2406
  2714   4   2413   2406
  2715   4   2424   2406
  2716   1   2407   2408
  2717   1   2407   2412
  2718   2   2407   2810
  2719   1   2408   2409
  2720   3   2408   2437
  2721   1   2409   2410
  2722   3   2409   2438
  2723   1   2410   2411
  2724   1   2411   2412
  2725   3   2411   2439
  2726   3   2412   2440
  2727   1   2413   2414
  2728   1   2413   2418
  2729   1   2414   2415
  2730   1   2415   2416
  2731   1   2416   2417
  2732   2   2416   2785
  2733   1   2417   2418
  2734   3   2417   2443
  2735   3   2418   2444
  2736   1   2419   2420
  2737   1   2419   2424
  2738   3   2419   2445
  2739   3   2420   2446
  2740   1   2421   2422
  2741   2   2421   2773
  2742   3   2422   2447
  2743   1   2423   2424
  2744   3   2423   2448
  2745   1   2449   2450
  2746   1   2449   2454
  2747   1   2450   2451
  2748   1   2451   2452
  2749   3   2451   2456
  2750   1   2452   2453
  2751   4   2452   2465
  2752   1   2453   2454
  2753   3   2453   2457
  2754   3   2454   2458
  2755   1   2459   2460
  2756   1   2459   2464
  2757   3   2459   2497
  2758   1   2460   2461
  2759   4   2460   2465
  2760   1   2461   2462
  2761   3   2461   2498
  2762   1   2462   2463
  2763   3   2462   2499
  2764   1   2463   2464
  2765   3   2464   2500
  2766   4   2466   2465
  2767   4   2477   2465
  2768   1   2466   2467
  2769   1   2466   2471
  2770   1   2467   2468
  2771   3   2467   2501
  2772   1   2468   2469
  2773   3   2468   2502
  2774   1   2469   2470
  2775   2   2469   2822
  2776   1   2470   2471
  2777   3   2470   2503
  2778   3   2471   2504
  2779   1   2472   2473
  2780   1   2472   2477
  2781   3   2472   2505
  2782   1   2473   2474
  2783   3   2473   2506
  2784   1   2474   2475
  2785   4   2474   2478
  2786   1   2475   2476
  2787   3   2475   2507
  2788   1   2476   2477
  2789   3   2476   2508
  2790   4   2482   2478
  2791   4   2485   2478
  2792   4   2496   2478
  2793   1   2479   2480
  2794   1   2479   2484
  2795   2   2479   2762
  2796   1   2480   2481
  2797   3   2480   2509
  2798   1   2481   2482
  2799   3   2481   2510
  2800   1   2482   2483
  2801   1   2483   2484
  2802   3   2483   2511
  2803   3   2484   2512
  2804   1   2485   2486
  2805   1   2485   2490
  2806   1   2486   2487
  2807   3   2486   2513
  2808   1   2487   2488
  2809   3   2487   2514
  2810   1   2488   2489
  2811   2   2488   2755
  2812   1   2489   2490
  2813   3   2489   2515
  2814   3   2490   2516
  2815   1   2491   2492
  2816   1   2491   2496
  2817   3   2491   2517
  2818   1   2492   2493
  2819   3   2492   2518
  2820   1   2493   2494
  2821   2   2493   2816
  2822   1   2494   2495
  2823   3   2494   2519
  2824   1   2495   2496
  2825   3   2495   2520
  2826   1   2521   2522
  2827   1   2521   2526
  2828   2   2521   2768
  2829   1   2522   2523
  2830   1   2523   2524
  2831   3   2523   2528
  2832   1   2524   2525
  2833   4   2524   2537
  2834   1   2525   2526
  2835   3   2525   2529
  2836   3   2526   2530
  2837   1   2531   2532
  2838   1   2531   2536
  2839   3   2531   2569
  2840   1   2532   2533
  2841   4   2532   2537
  2842   1   2533   2534
  2843   3   2533   2570
  2844   1   2534   2535
  2845   3   2534   2571
  2846   1   2535   2536
  2847   2   2535   2804
  2848   3   2536   2572
  2849   4   2538   2537
  2850   4   2549   2537
  2851   1   2538   2539
  2852   1   2538   2543
  2853   1   2539   2540
  2854   3   2539   2573
  2855   1   2540   2541
  2856   3   2540   2574
  2857   1   2541   2542
  2858   2   2541   2851
  2859   1   2542   2543
  2860   3   2542   2575
  2861   3   2543   2576
  2862   1   2544   2545
  2863   1   2544   2549
  2864   3   2544   2577
  2865   1   2545   2546
  2866   3   2545   2578
  2867   1   2546   2547
  2868   4   2546   2550
  2869   1   2547   2548
  2870   3   2547   2579
  2871   1   2548   2549
  2872   3   2548   2580
  2873   4   2554   2550
  2874   4   2557   2550
  2875   4   2568   2550
  2876   1   2551   2552
  2877   1   2551   2556
  2878   2   2551   2744
  2879   1   2552   2553
  2880   3   2552   2581
  2881   1   2553   2554
  2882   3   2553   2582
  2883   1   2554   2555
  2884   1   2555   2556
  2885   3   2555   2583
  2886   3   2556   2584
  2887   1   2557   2558
  2888   1   2557   2562
  2889   1   2558   2559
  2890   3   2558   2585
  2891   1   2559   2560
  2892   3   2559   2586
  2893   1   2560   2561
  2894   1   2561   2562
  2895   3   2561   2587
  2896   3   2562   2588
  2897   1   2563   2564
  2898   1   2563   2568
  2899   3   2563   2589
  2900   1   2564   2565
  2901   3   2564   2590
  2902   1   2565   2566
  2903   2   2565   2846
  2904   1   2566   2567
  2905   3   2566   2591
  2906   1   2567   2568
  2907   3   2567   2592
  2908   1   2593   2594
  2909   1   2593   2598
  2910   2   2593   2737
  2911   1   2594   2595
  2912   3   2594   2599
  2913   1   2595   2596
  2914   3   2595   2600
  2915   1   2596   2597
  2916   4   2596   2609
  2917   1   2597   2598
  2918   3   2597   2601
  2919   3   2598   2602
  2920   1   2603   2604
  2921   1   2603   2608
  2922   3   2603   2641
  2923   1   2604   2605
  2924   1   2605   2606
  2925   3   2605   2642
  2926   1   2606   2607
  2927   3   2606   2643
  2928   1   2607   2608
  2929   2   2607   2857
  2930   3   2608   2644
  2931   4   2621   2609
  2932   1   2610   2611
  2933   1   2611   2612
  2934   3   2611   2645
  2935   1   2612   2613
  2936   3   2612   2646
  2937   2   2613   2798
  2938   1   2614   2615
  2939   3   2614   2647
  2940   3   2615   2648
  2941   1   2616   2617
  2942   1   2616   2621
  2943   1   2617   2618
  2944   1   2618   2619
  2945   4   2618   2622
  2946   1   2619   2620
  2947   3   2619   2651
  2948   1   2620   2621
  2949   3   2620   2652
  2950   4   2626   2622
  2951   4   2629   2622
  2952   1   2623   2624
  2953   1   2623   2628
  2954   2   2623   2756
  2955   3   2624   2653
  2956   1   2625   2626
  2957   3   2625   2654
  2958   1   2627   2628
  2959   3   2627   2655
  2960   3   2628   2656
  2961   1   2629   2630
  2962   1   2629   2634
  2963   1   2630   2631
  2964   3   2630   2657
  2965   1   2631   2632
  2966   3   2631   2658
  2967   1   2632   2633
  2968   2   2632   2761
  2969   1   2633   2634
  2970   3   2633   2659
  2971   3   2634   2660
  2972   1   2635   2636
  2973   1   2635   2640
  2974   1   2636   2637
  2975   3   2636   2662
  2976   1   2637   2638
  2977   2   2637   2791
  2978   1   2638   2639
  2979   3   2638   2663
  2980   1   2639   2640
  2981   3   2639   2664
  2982   1   2665   2666
  2983   1   2665   2670
  2984   2   2665   2738
  2985   1   2666   2667
  2986   3   2666   2671
  2987   1   2667   2668
  2988   3   2667   2672
  2989   4   2668   2681
  2990   3   2669   2673
  2991   1   2675   2676
  2992   1   2675   2680
  2993   3   2675   2713
  2994   1   2676   2677
  2995   4   2676   2681
  2996   1   2677   2678
  2997   3   2677   2714
  2998   1   2678   2679
  2999   3   2678   2715
  3000   1   2679   2680
  3001   2   2679   2828
  3002   3   2680   2716
  3003   4   2682   2681
  3004   1   2682   2683
  3005   1   2682   2687
  3006   1   2683   2684
  3007   3   2683   2717
  3008   1   2684   2685
  3009   3   2684   2718
  3010   1   2685   2686
  3011   2   2685   2780
  3012   1   2686   2687
  3013   3   2686   2719
  3014   1   2688   2689
  3015   1   2688   2693
  3016   3   2688   2721
  3017   1   2689   2690
  3018   3   2689   2722
  3019   1   2690   2691
  3020   4   2690   2694
  3021   1   2691   2692
  3022   3   2691   2723
  3023   1   2692   2693
  3024   3   2692   2724
  3025   4   2698   2694
  3026   4   2701   2694
  3027   4   2712   2694
  3028   1   2695   2696
  3029   1   2695   2700
  3030   2   2695   2749
  3031   1   2696   2697
  3032   3   2696   2725
  3033   1   2697   2698
  3034   3   2697   2726
  3035   1   2698   2699
  3036   1   2699   2700
  3037   3   2699   2727
  3038   3   2700   2728
  3039   1   2701   2702
  3040   1   2701   2706
  3041   1   2702   2703
  3042   3   2702   2729
  3043   1   2703   2704
  3044   3   2703   2730
  3045   1   2704   2705
  3046   2   2704   2743
  3047   1   2705   2706
  3048   3   2705   2731
  3049   3   2706   2732
  3050   1   2707   2708
  3051   1   2707   2712
  3052   3   2707   2733
  3053   1   2708   2709
  3054   3   2708   2734
  3055   1   2709   2710
  3056   1   2710   2711
  3057   1   2711   2712
  3058   3   2711   2736
  3059   5   2737   2738
  3060   6   2739   2737
  3061   6   2740   2737
  3062   6   2741   2738
  3063   6   2742   2738
  3064   5   2743   2744
  3065   6   2745   2743
  3066   6   2746   2743
  3067   6   2747   2744
  3068   6   2748   2744
  3069   5   2749   2750
  3070   6   2751   2749
  3071   6   2752   2749
  3072   6   2753   2750
  3073   5   2755   2756
  3074   6   2757   2755
  3075   6   2758   2755
  3076   6   2759   2756
  3077   6   2760   2756
  3078   5   2761   2762
  3079   6   2763   2761
  3080   6   2764   2761
  3081   6   2765   2762
  3082   6   2766   2762
  3083   6   2769   2767
  3084   6   2770   2767
  3085   6   2772   2768
  3086   5   2773   2774
  3087   6   2775   2773
  3088   6   2776   2773
  3089   6   2777   2774
  3090   6   2781   2779
  3091   6   2782   2779
  3092   6   2783   2780
  3093   6   2784   2780
  3094   5   2785   2786
  3095   6   2788   2785
  3096   6   2789   2786
  3097   6   2790   2786
  3098   5   2791   2792
  3099   6   2793   2791
  3100   6   2794   2791
  3101   6   2795   2792
  3102   6   2796   2792
  3103   5   2797   2798
  3104   6   2799   2797
  3105   6   2800   2797
  3106   6   2801   2798
  3107   6   2802   2798
  3108   5   2803   2804
  3109   6   2805   2803
  3110   6   2807   2804
  3111   6   2808   2804
  3112   5   2809   2810
  3113   6   2811   2809
  3114   6   2812   2809
  3115   6   2813   2810
  3116   6   2814   2810
  3117   5   2815   2816
  3118   6   2817   2815
  3119   6   2818   2815
  3120   6   2819   2816
  3121   6   2820   2816
  3122   5   2821   2822
  3123   6   2823   2821
  3124   6   2824   2821
  3125   6   2825   2822
  3126   6   2826   2822
  3127   5   2827   2828
  3128   6   2829   2827
  3129   6   2830   2827
  3130   6   2831   2828
  3131   6   2832   2828
  3132   5   2833   2834
  3133   6   2836   2833
  3134   6   2837   2834
  3135   6   2838   2834
  3136   5   2839   2840
  3137   6   2841   2839
  3138   6   2844   2840
  3139   5   2845   2846
  3140   6   2847   2845
  3141   6   2848   2845
  3142   6   2849   2846
  3143   6   2850   2846
  3144   5   2851   2852
  3145   6   2853   2851
  3146   6   2854   2851
  3147   6   2855   2852
  3148   6   2856   2852
  3149   5   2857   2858
  3150   6   2859   2857
  3151   6   2860   2857
  3152   6   2861   2858
  3153   6   2862   2858
  3154   5   2863   2864
  3155   6   2865   2863
  3156   6   2866   2863
  3157   6   2867   2864
  3158   6   2868   2864
  3159   5   2869   2870
  3160   6   2871   2869
  3161   6   2872   2869
  3162   6   2873   2870
  3163   6   2874   2870
  3164   5   2875   2876
  3165   6   2877   2875
  3166   6   2878   2875
  3167   6   2879   2876
  3168   6   2880   2876

Angles

     1   1      2      1      6
     2   2      2      1    703
     3   2      6      1    703
     4   1      1      2      3
     5   3      1      2      7
     6   3      3      2      7
     7   1      2      3      4
     8   3      2      3      8
     9   3      4      3      8
    10   1      3      4      5
    11   4      3      4     17
    12   4      5      4     17
    13   1      4      5      6
    14   3      4      5      9
    15   3      6      5      9
    16   1      5      6      1
    17   3      5      6     10
    18   3      1      6     10
    19   1     12     11     16
    20   3     12     11     49
    21   3     16     11     49
    22   1     11     12     13
    23   4     11     12     17
    24   4     13     12     17
    25   1     12     13     14
    26   3     12     13     50
    27   3     14     13     50
    28   1     13     14     15
    29   3     13     14     51
    30   3     15     14     51
    31   1     14     15     16
    32   2     14     15   2149
    33   2     16     15   2149
    34   1     15     16     11
    35   3     15     16     52
    36   3     11     16     52
    37   5      4     17     12
    38   5      4     17     18
    39   5      4     17     29
    40   5     12     17     18
    41   5     12     17     29
    42   5     18     17     29
    43   4     19     18     17
    44   4     23     18     17
    45   1     19     18     23
    46   1     18     19    740
    47   3     18     19     53
    48   3    740     19     53
    49   1    739     20     21
    50   3    739     20    774
    51   3     21     20    774
    52   1     20     21     22
    53   2     20     21    692
    54   2     22     21    692
    55   1     21     22    743
    56   3     21     22     55
    57   3    743     22     55
    58   1     18     23    742
    59   3     18     23     56
    60   3    742     23     56
    61   1     25     24     29
    62   3     25     24     57
    63   3     29     24     57
    64   1     24     25     26
    65   3     24     25     58
    66   3     26     25     58
    67   1     25     26     27
    68   4     25     26     30
    69   4     27     26     30
    70   1     26     27     28
    71   3     26     27     59
    72   3     28     27     59
    73   1     27     28     29
    74   3     27     28     60
    75   3     29     28     60
    76   4     24     29     17
    77   4     28     29     17
    78   1     24     29     28
    79   5     26     30     34
    80   5     26     30     37
    81   5     26     30     48
    82   5     34     30     37
    83   5     34     30     48
    84   5     37     30     48
    85   1     32     31     36
    86   2     32     31    716
    87   2     36     31    716
    88   1     31     32     33
    89   3     31     32     61
    90   3     33     32     61
    91   1     32     33     34
    92   3     32     33     62
    93   3     34     33     62
    94   4     33     34     30
    95   4     35     34     30
    96   1     33     34     35
    97   1     34     35     36
    98   3     34     35     63
    99   3     36     35     63
   100   1     31     36     35
   101   3     31     36     64
   102   3     35     36     64
   103   4     38     37     30
   104   4     42     37     30
   105   1     38     37     42
   106   1     37     38     39
   107   3     37     38     65
   108   3     39     38     65
   109   1     38     39     40
   110   3     38     39     66
   111   3     40     39     66
   112   1     39     40     41
   113   2     39     40    698
   114   2     41     40    698
   115   1     40     41     42
   116   3     40     41     67
   117   3     42     41     67
   118   1     37     42     41
   119   3     37     42     68
   120   3     41     42     68
   121   1     44     43     48
   122   3     44     43     69
   123   3     48     43     69
   124   1     43     44     45
   125   3     43     44     70
   126   3     45     44     70
   127   1     44     45     46
   128   2     44     45    685
   129   2     46     45    685
   130   1     45     46     47
   131   3     45     46     71
   132   3     47     46     71
   133   1     46     47     48
   134   3     46     47     72
   135   3     48     47     72
   136   4     43     48     30
   137   4     47     48     30
   138   1     43     48     47
   139   1    794     73     78
   140   2    794     73    679
   141   2     78     73    679
   142   1    793     74     75
   143   3    793     74     79
   144   3     75     74     79
   145   1     74     75    796
   146   3     74     75     80
   147   3    796     75     80
   148   1    795     76     77
   149   4    795     76     89
   150   4     77     76     89
   151   1     76     77     78
   152   3     76     77     81
   153   3     78     77     81
   154   1     77     78     73
   155   3     77     78     82
   156   3     73     78     82
   157   1     84     83     88
   158   3     84     83    121
   159   3     88     83    121
   160   1     83     84     85
   161   4     83     84     89
   162   4     85     84     89
   163   1     84     85     86
   164   3     84     85    122
   165   3     86     85    122
   166   1     85     86     87
   167   3     85     86    123
   168   3     87     86    123
   169   1     86     87     88
   170   2     86     87    674
   171   2     88     87    674
   172   1     87     88     83
   173   3     87     88    124
   174   3     83     88    124
   175   5     84     89     76
   176   5     84     89     90
   177   5     84     89    101
   178   5     76     89     90
   179   5     76     89    101
   180   5     90     89    101
   181   4     91     90     89
   182   4    815     90     89
   183   1     91     90    815
   184   1     90     91    812
   185   3     90     91    125
   186   3    812     91    125
   187   1    811     92     93
   188   3    811     92    846
   189   3     93     92    846
   190   1     92     93     94
   191   2     92     93    661
   192   2     94     93    661
   193   1     93     94     95
   194   3     93     94    127
   195   3     95     94    127
   196   1    810     95     94
   197   3    810     95    128
   198   3     94     95    128
   199   1     97     96    101
   200   3     97     96    129
   201   3    101     96    129
   202   1     96     97     98
   203   3     96     97    130
   204   3     98     97    130
   205   1     97     98     99
   206   4     97     98    102
   207   4     99     98    102
   208   1     98     99    100
   209   3     98     99    131
   210   3    100     99    131
   211   1     99    100    101
   212   3     99    100    132
   213   3    101    100    132
   214   4    100    101     89
   215   1    100    101     96
   216   4     96    101     89
   217   5     98    102    106
   218   5     98    102    109
   219   5     98    102    120
   220   5    106    102    109
   221   5    106    102    120
   222   5    109    102    120
   223   1    104    103    108
   224   2    104    103    715
   225   2    108    103    715
   226   1    103    104    105
   227   3    103    104    133
   228   3    105    104    133
   229   1    104    105    106
   230   3    104    105    134
   231   3    106    105    134
   232   4    105    106    102
   233   1    105    106    107
   234   4    107    106    102
   235   1    106    107    108
   236   3    106    107    135
   237   3    108    107    135
   238   1    103    108    107
   239   3    103    108    136
   240   3    107    108    136
   241   4    110    109    102
   242   4    114    109    102
   243   1    110    109    114
   244   1    109    110    111
   245   3    109    110    137
   246   3    111    110    137
   247   1    110    111    112
   248   3    110    111    138
   249   3    112    111    138
   250   1    111    112    113
   251   2    111    112    667
   252   2    113    112    667
   253   1    112    113    114
   254   3    112    113    139
   255   3    114    113    139
   256   1    109    114    113
   257   3    109    114    140
   258   3    113    114    140
   259   1    116    115    120
   260   3    116    115    141
   261   3    120    115    141
   262   1    115    116    117
   263   3    115    116    142
   264   3    117    116    142
   265   1    116    117    118
   266   2    116    117    655
   267   2    118    117    655
   268   1    117    118    119
   269   3    117    118    143
   270   3    119    118    143
   271   1    118    119    120
   272   3    118    119    144
   273   3    120    119    144
   274   4    119    120    102
   275   4    115    120    102
   276   1    119    120    115
   277   1    146    145    870
   278   2    146    145    673
   279   2    870    145    673
   280   1    145    146    147
   281   3    145    146    151
   282   3    147    146    151
   283   1    146    147    148
   284   3    146    147    152
   285   3    148    147    152
   286   1    147    148    869
   287   4    147    148    161
   288   4    869    148    161
   289   1    868    149    150
   290   3    868    149    153
   291   3    150    149    153
   292   1    149    150    865
   293   3    149    150    154
   294   3    865    150    154
   295   1    876    155    160
   296   3    876    155    193
   297   3    160    155    193
   298   1    875    156    157
   299   4    875    156   1601
   300   4    157    156   1601
   301   1    156    157    158
   302   3    156    157    194
   303   3    158    157    194
   304   1    157    158    159
   305   3    157    158    195
   306   3    159    158    195
   307   1    158    159    880
   308   2    158    159    680
   309   2    880    159    680
   310   1    879    160    155
   311   3    879    160    196
   312   3    155    160    196
   313   5    148    161   1596
   314   5    148    161    162
   315   5    148    161    893
   316   5   1596    161    162
   317   5   1596    161    893
   318   5    162    161    893
   319   4    163    162    161
   320   4    167    162    161
   321   1    163    162    167
   322   1    162    163    164
   323   3    162    163    197
   324   3    164    163    197
   325   1    163    164    165
   326   3    163    164    198
   327   3    165    164    198
   328   1    164    165    166
   329   2    164    165    637
   330   2    166    165    637
   331   1    165    166    167
   332   3    165    166    199
   333   3    167    166    199
   334   1    162    167    166
   335   3    162    167    200
   336   3    166    167    200
   337   1    169    168    173
   338   3    169    168    201
   339   3    173    168    201
   340   1    168    169    170
   341   3    168    169    202
   342   3    170    169    202
   343   1    169    170    171
   344   4    169    170    174
   345   4    171    170    174
   346   1    170    171    172
   347   3    170    171    203
   348   3    172    171    203
   349   1    171    172    173
   350   3    171    172    924
   351   3    173    172    924
   352   4    168    173    881
   353   1    168    173    172
   354   4    172    173    881
   355   5    170    174    178
   356   5    170    174    181
   357   5    170    174    192
   358   5    178    174    181
   359   5    178    174    192
   360   5    181    174    192
   361   1    176    175    180
   362   2    176    175    649
   363   2    180    175    649
   364   1    175    176    177
   365   3    175    176    205
   366   3    177    176    205
   367   1    176    177    178
   368   3    176    177    206
   369   3    178    177    206
   370   4    177    178    174
   371   4    179    178    174
   372   1    177    178    179
   373   1    178    179    180
   374   3    178    179    207
   375   3    180    179    207
   376   1    179    180    175
   377   3    179    180    208
   378   3    175    180    208
   379   4    182    181    174
   380   4    186    181    174
   381   1    182    181    186
   382   1    181    182    183
   383   3    181    182    209
   384   3    183    182    209
   385   1    182    183    184
   386   3    182    183    210
   387   3    184    183    210
   388   1    183    184    905
   389   2    183    184    643
   390   2    905    184    643
   391   1    904    185    906
   392   3    904    185    211
   393   3    906    185    211
   394   1    181    186    905
   395   3    181    186    212
   396   3    905    186    212
   397   1    188    187    192
   398   3    188    187    213
   399   3    192    187    213
   400   1    187    188    189
   401   3    187    188    214
   402   3    189    188    214
   403   1    188    189    190
   404   2    188    189    632
   405   2    190    189    632
   406   1    189    190    191
   407   3    189    190    215
   408   3    191    190    215
   409   1    190    191    192
   410   3    190    191    216
   411   3    192    191    216
   412   1    191    192    187
   413   4    191    192    174
   414   4    187    192    174
   415   1    218    217    222
   416   2    218    217    710
   417   2    222    217    710
   418   1    217    218    219
   419   3    217    218    223
   420   3    219    218    223
   421   1    218    219    220
   422   3    218    219    224
   423   3    220    219    224
   424   1    219    220    221
   425   4    219    220    233
   426   4    221    220    233
   427   1    220    221    222
   428   3    220    221    225
   429   3    222    221    225
   430   1    217    222    221
   431   3    217    222    226
   432   3    221    222    226
   433   1    228    227    232
   434   3    228    227    265
   435   3    232    227    265
   436   1    227    228    229
   437   4    227    228    233
   438   4    229    228    233
   439   1    228    229    230
   440   3    228    229    266
   441   3    230    229    266
   442   1    229    230    231
   443   3    229    230    267
   444   3    231    230    267
   445   1    230    231    232
   446   2    230    231    704
   447   2    232    231    704
   448   1    231    232    227
   449   3    231    232    268
   450   3    227    232    268
   451   5    220    233    228
   452   5    220    233    234
   453   5    220    233    245
   454   5    228    233    234
   455   5    228    233    245
   456   5    234    233    245
   457   4    235    234    233
   458   4    239    234    233
   459   1    235    234    239
   460   1    234    235    236
   461   3    234    235    269
   462   3    236    235    269
   463   1    235    236    237
   464   3    235    236   1710
   465   3    237    236   1710
   466   1    236    237    238
   467   2    236    237    619
   468   2    238    237    619
   469   1    237    238    239
   470   3    237    238    271
   471   3    239    238    271
   472   1    234    239    238
   473   3    234    239    272
   474   3    238    239    272
   475   1    241    240    965
   476   3    241    240    273
   477   3    965    240    273
   478   1    240    241    242
   479   3    240    241    274
   480   3    242    241    274
   481   1    241    242    243
   482   4    241    242    246
   483   4    243    242    246
   484   1    242    243    964
   485   3    242    243    275
   486   3    964    243    275
   487   1    963    244    245
   488   3    963    244    276
   489   3    245    244    276
   490   1    244    245    960
   491   4    244    245    233
   492   4    960    245    233
   493   5    242    246    250
   494   5    242    246    253
   495   5    242    246    264
   496   5    250    246    253
   497   5    250    246    264
   498   5    253    246    264
   499   1    248    247    252
   500   2    248    247    650
   501   2    252    247    650
   502   1    247    248    249
   503   3    247    248    277
   504   3    249    248    277
   505   1    248    249    250
   506   3    248    249    278
   507   3    250    249    278
   508   4    249    250    246
   509   1    249    250    251
   510   4    251    250    246
   511   1    250    251    252
   512   3    250    251    279
   513   3    252    251    279
   514   1    247    252    251
   515   3    247    252    280
   516   3    251    252    280
   517   4    254    253    246
   518   4    258    253    246
   519   1    254    253    258
   520   1    253    254    255
   521   3    253    254   1721
   522   3    255    254   1721
   523   1    254    255    256
   524   3    254    255   1722
   525   3    256    255   1722
   526   1    255    256    257
   527   2    255    256    625
   528   2    257    256    625
   529   1    256    257    258
   530   3    256    257    283
   531   3    258    257    283
   532   1    257    258    253
   533   3    257    258    284
   534   3    253    258    284
   535   1    260    259    264
   536   3    260    259    285
   537   3    264    259    285
   538   1    259    260   1701
   539   3    259    260    286
   540   3   1701    260    286
   541   1   1700    261    262
   542   2   1700    261    613
   543   2    262    261    613
   544   1    261    262   1703
   545   3    261    262    287
   546   3   1703    262    287
   547   1   1702    263    264
   548   3   1702    263    288
   549   3    264    263    288
   550   1    263    264    259
   551   4    263    264    246
   552   4    259    264    246
   553   1    290    289    294
   554   2    290    289   1327
   555   2    294    289   1327
   556   1    289    290    291
   557   3    289    290   1015
   558   3    291    290   1015
   559   1    290    291    292
   560   3    290    291    296
   561   3    292    291    296
   562   1    291    292    293
   563   4    291    292    305
   564   4    293    292    305
   565   1    292    293    294
   566   3    292    293    297
   567   3    294    293    297
   568   1    293    294    289
   569   3    293    294    298
   570   3    289    294    298
   571   1    300    299    304
   572   3    300    299    337
   573   3    304    299    337
   574   1    299    300    301
   575   4    299    300    305
   576   4    301    300    305
   577   1    300    301    302
   578   3    300    301    338
   579   3    302    301    338
   580   1    301    302    303
   581   3    301    302    339
   582   3    303    302    339
   583   1    302    303    304
   584   2    302    303   2066
   585   2    304    303   2066
   586   1    299    304    303
   587   3    299    304    340
   588   3    303    304    340
   589   5    292    305    300
   590   5    292    305    306
   591   5    292    305    317
   592   5    300    305    306
   593   5    300    305    317
   594   5    306    305    317
   595   4    307    306    305
   596   4    311    306    305
   597   1    307    306    311
   598   1    306    307    308
   599   3    306    307    341
   600   3    308    307    341
   601   1    307    308    309
   602   3    307    308    342
   603   3    309    308    342
   604   1    308    309    310
   605   2    308    309    662
   606   2    310    309    662
   607   1    309    310    311
   608   3    309    310    343
   609   3    311    310    343
   610   1    310    311    306
   611   3    310    311    344
   612   3    306    311    344
   613   1    313    312    317
   614   3    313    312    345
   615   3    317    312    345
   616   1    312    313    314
   617   3    312    313    346
   618   3    314    313    346
   619   1    313    314    315
   620   4    313    314    318
   621   4    315    314    318
   622   1    314    315    316
   623   3    314    315    347
   624   3    316    315    347
   625   1    315    316    317
   626   3    315    316    348
   627   3    317    316    348
   628   4    312    317    305
   629   1    312    317    316
   630   4    316    317    305
   631   5    314    318    322
   632   5    314    318    325
   633   5    314    318    336
   634   5    322    318    325
   635   5    322    318    336
   636   5    325    318    336
   637   1    320    319    324
   638   2    320    319    602
   639   2    324    319    602
   640   1    319    320    321
   641   3    319    320    349
   642   3    321    320    349
   643   1    320    321    322
   644   3    320    321    350
   645   3    322    321    350
   646   4    321    322    318
   647   4    323    322    318
   648   1    321    322    323
   649   1    322    323    324
   650   3    322    323    351
   651   3    324    323    351
   652   1    323    324    319
   653   3    323    324    352
   654   3    319    324    352
   655   4    326    325    318
   656   4    330    325    318
   657   1    326    325    330
   658   1    325    326    327
   659   3    325    326    353
   660   3    327    326    353
   661   1    326    327    328
   662   3    326    327    354
   663   3    328    327    354
   664   1    327    328    329
   665   2    327    328    595
   666   2    329    328    595
   667   1    328    329    330
   668   3    328    329    355
   669   3    330    329    355
   670   1    325    330    329
   671   3    325    330    356
   672   3    329    330    356
   673   1    332    331    336
   674   3    332    331    357
   675   3    336    331    357
   676   1    331    332    333
   677   3    331    332    358
   678   3    333    332    358
   679   1    332    333    334
   680   2    332    333    656
   681   2    334    333    656
   682   1    333    334    335
   683   3    333    334    359
   684   3    335    334    359
   685   1    334    335    336
   686   3    334    335    360
   687   3    336    335    360
   688   4    335    336    318
   689   1    335    336    331
   690   4    331    336    318
   691   1    362    361    366
   692   2    362    361    608
   693   2    366    361    608
   694   1    361    362    363
   695   3    361    362   1087
   696   3    363    362   1087
   697   1    362    363    364
   698   3    362    363    368
   699   3    364    363    368
   700   1    363    364    365
   701   4    363    364    377
   702   4    365    364    377
   703   1    364    365    366
   704   3    364    365    369
   705   3    366    365    369
   706   1    365    366    361
   707   3    365    366    370
   708   3    361    366    370
   709   1    372    371    376
   710   3    372    371    409
   711   3    376    371    409
   712   1    371    372    373
   713   4    371    372    377
   714   4    373    372    377
   715   1    372    373    374
   716   3    372    373    410
   717   3    374    373    410
   718   1    373    374    375
   719   3    373    374    411
   720   3    375    374    411
   721   1    374    375    376
   722   2    374    375    644
   723   2    376    375    644
   724   1    371    376    375
   725   3    371    376    412
   726   3    375    376    412
   727   5    364    377    372
   728   5    364    377    378
   729   5    364    377    389
   730   5    372    377    378
   731   5    372    377    389
   732   5    378    377    389
   733   4    379    378    377
   734   4    383    378    377
   735   1    379    378    383
   736   1    378    379    380
   737   3    378    379    413
   738   3    380    379    413
   739   1    379    380    381
   740   3    379    380    414
   741   3    381    380    414
   742   1    380    381    382
   743   2    380    381    691
   744   2    382    381    691
   745   1    381    382    383
   746   3    381    382    415
   747   3    383    382    415
   748   1    382    383    378
   749   3    382    383    416
   750   3    378    383    416
   751   1    385    384    389
   752   3    385    384    417
   753   3    389    384    417
   754   1    384    385    386
   755   3    384    385    418
   756   3    386    385    418
   757   1    385    386    387
   758   4    385    386    390
   759   4    387    386    390
   760   1    386    387    388
   761   3    386    387    419
   762   3    388    387    419
   763   1    387    388    389
   764   3    387    388    420
   765   3    389    388    420
   766   4    384    389    377
   767   1    384    389    388
   768   4    388    389    377
   769   5    386    390    394
   770   5    386    390    397
   771   5    386    390    408
   772   5    394    390    397
   773   5    394    390    408
   774   5    397    390    408
   775   1    392    391    396
   776   2    392    391    584
   777   2    396    391    584
   778   1    391    392    393
   779   3    391    392    421
   780   3    393    392    421
   781   1    392    393    394
   782   3    392    393    422
   783   3    394    393    422
   784   4    393    394    390
   785   1    393    394    395
   786   4    395    394    390
   787   1    394    395    396
   788   3    394    395    423
   789   3    396    395    423
   790   1    391    396    395
   791   3    391    396    424
   792   3    395    396    424
   793   4    398    397    390
   794   4    402    397    390
   795   1    398    397    402
   796   1    397    398    399
   797   3    397    398    425
   798   3    399    398    425
   799   1    398    399    400
   800   3    398    399    426
   801   3    400    399    426
   802   1    399    400    401
   803   2    399    400   2030
   804   2    401    400   2030
   805   1    400    401    402
   806   3    400    401    427
   807   3    402    401    427
   808   1    397    402    401
   809   3    397    402    428
   810   3    401    402    428
   811   1    404    403    408
   812   3    404    403    429
   813   3    408    403    429
   814   1    403    404    405
   815   3    403    404    430
   816   3    405    404    430
   817   1    404    405    406
   818   2    404    405    686
   819   2    406    405    686
   820   1    405    406    407
   821   3    405    406    431
   822   3    407    406    431
   823   1    406    407    408
   824   3    406    407    432
   825   3    408    407    432
   826   1    407    408    403
   827   4    407    408    390
   828   4    403    408    390
   829   1    434    433    438
   830   2    434    433    577
   831   2    438    433    577
   832   1    433    434    435
   833   3    433    434    439
   834   3    435    434    439
   835   1    434    435    436
   836   3    434    435    440
   837   3    436    435    440
   838   1    435    436    437
   839   4    435    436    449
   840   4    437    436    449
   841   1    436    437    438
   842   3    436    437    441
   843   3    438    437    441
   844   1    433    438    437
   845   3    433    438    442
   846   3    437    438    442
   847   1    444    443    448
   848   3    444    443    481
   849   3    448    443    481
   850   1    443    444    445
   851   4    443    444   1889
   852   4    445    444   1889
   853   1    444    445    446
   854   3    444    445    482
   855   3    446    445    482
   856   1    445    446    447
   857   3    445    446    483
   858   3    447    446    483
   859   1    446    447    448
   860   2    446    447    697
   861   2    448    447    697
   862   1    447    448    443
   863   3    447    448    484
   864   3    443    448    484
   865   5   1884    449    436
   866   5   1884    449   1890
   867   5   1884    449    461
   868   5    436    449   1890
   869   5    436    449    461
   870   5   1890    449    461
   871   4    451    450   1889
   872   4   1895    450   1889
   873   1    451    450   1895
   874   1    450    451    452
   875   3    450    451    485
   876   3    452    451    485
   877   1    451    452    453
   878   3    451    452    486
   879   3    453    452    486
   880   1    452    453   1894
   881   2    452    453    638
   882   2   1894    453    638
   883   1   1893    454    455
   884   3   1893    454    487
   885   3    455    454    487
   886   1    454    455   1890
   887   3    454    455    488
   888   3   1890    455    488
   889   1    457    456    461
   890   3    457    456   1929
   891   3    461    456   1929
   892   1    456    457    458
   893   3    456    457   1930
   894   3    458    457   1930
   895   1    457    458    459
   896   4    457    458    462
   897   4    459    458    462
   898   1    458    459    460
   899   3    458    459    491
   900   3    460    459    491
   901   1    459    460    461
   902   3    459    460    492
   903   3    461    460    492
   904   4    460    461    449
   905   1    460    461    456
   906   4    456    461    449
   907   5    458    462    466
   908   5    458    462    469
   909   5    458    462   1920
   910   5    466    462    469
   911   5    466    462   1920
   912   5    469    462   1920
   913   1    464    463    468
   914   2    464    463    596
   915   2    468    463    596
   916   1    463    464   1905
   917   3    463    464    493
   918   3   1905    464    493
   919   1   1904    465    466
   920   3   1904    465    494
   921   3    466    465    494
   922   4    465    466    462
   923   1    465    466   1907
   924   4   1907    466    462
   925   1   1906    467    468
   926   3   1906    467    495
   927   3    468    467    495
   928   1    467    468    463
   929   3    467    468    496
   930   3    463    468    496
   931   4    470    469    462
   932   4    474    469    462
   933   1    470    469    474
   934   1    469    470    471
   935   3    469    470    497
   936   3    471    470    497
   937   1    470    471    472
   938   3    470    471    498
   939   3    472    471    498
   940   1    471    472    473
   941   2    471    472    601
   942   2    473    472    601
   943   1    472    473    474
   944   3    472    473    499
   945   3    474    473    499
   946   1    469    474    473
   947   3    469    474    500
   948   3    473    474    500
   949   1    476    475    480
   950   3    476    475   1941
   951   3    480    475   1941
   952   1    475    476    477
   953   3    475    476    502
   954   3    477    476    502
   955   1    476    477    478
   956   2    476    477    631
   957   2    478    477    631
   958   1    477    478    479
   959   3    477    478    503
   960   3    479    478    503
   961   1    478    479    480
   962   3    478    479    504
   963   3    480    479    504
   964   1    475    480    479
   965   4    475    480   1902
   966   4    479    480   1902
   967   1    506    505    510
   968   2    506    505    578
   969   2    510    505    578
   970   1    505    506    507
   971   3    505    506    511
   972   3    507    506    511
   973   1    506    507    508
   974   3    506    507    512
   975   3    508    507    512
   976   1    507    508   1949
   977   4    507    508    521
   978   4   1949    508    521
   979   1   1948    509   1950
   980   3   1948    509    513
   981   3   1950    509    513
   982   1   1949    510    505
   983   3   1949    510   1954
   984   3    505    510   1954
   985   1    516    515    520
   986   3    516    515    553
   987   3    520    515    553
   988   1    515    516    517
   989   4    515    516    521
   990   4    517    516    521
   991   1    516    517    518
   992   3    516    517    554
   993   3    518    517    554
   994   1    517    518    519
   995   3    517    518    555
   996   3    519    518    555
   997   1    518    519    520
   998   2    518    519    668
   999   2    520    519    668
  1000   1    515    520    519
  1001   3    515    520    556
  1002   3    519    520    556
  1003   5    508    521    516
  1004   5    508    521    522
  1005   5    508    521   1973
  1006   5    516    521    522
  1007   5    516    521   1973
  1008   5    522    521   1973
  1009   4    523    522    521
  1010   4    527    522    521
  1011   1    523    522    527
  1012   1    522    523    524
  1013   3    522    523    557
  1014   3    524    523    557
  1015   1    523    524    525
  1016   3    523    524    558
  1017   3    525    524    558
  1018   1    524    525    526
  1019   2    524    525    620
  1020   2    526    525    620
  1021   1    525    526    527
  1022   3    525    526    559
  1023   3    527    526    559
  1024   1    526    527    522
  1025   3    526    527   2000
  1026   3    522    527   2000
  1027   1    529    528    533
  1028   3    529    528    561
  1029   3    533    528    561
  1030   1    528    529    530
  1031   3    528    529    562
  1032   3    530    529    562
  1033   1    529    530    531
  1034   4    529    530    534
  1035   4    531    530    534
  1036   1    530    531    532
  1037   3    530    531    563
  1038   3    532    531    563
  1039   1    531    532    533
  1040   3    531    532    564
  1041   3    533    532    564
  1042   1    528    533    532
  1043   4    528    533   1961
  1044   4    532    533   1961
  1045   5    530    534    538
  1046   5    530    534    541
  1047   5    530    534    552
  1048   5    538    534    541
  1049   5    538    534    552
  1050   5    541    534    552
  1051   1    536    535    540
  1052   2    536    535    589
  1053   2    540    535    589
  1054   1    535    536    537
  1055   3    535    536    565
  1056   3    537    536    565
  1057   1    536    537    538
  1058   3    536    537    566
  1059   3    538    537    566
  1060   4    537    538    534
  1061   4    539    538    534
  1062   1    537    538    539
  1063   1    538    539    540
  1064   3    538    539    567
  1065   3    540    539    567
  1066   1    539    540    535
  1067   3    539    540    568
  1068   3    535    540    568
  1069   4    542    541    534
  1070   4    546    541    534
  1071   1    542    541    546
  1072   1    541    542    543
  1073   3    541    542    569
  1074   3    543    542    569
  1075   1    542    543    544
  1076   3    542    543    570
  1077   3    544    543    570
  1078   1    543    544    545
  1079   2    543    544    583
  1080   2    545    544    583
  1081   1    544    545    546
  1082   3    544    545    571
  1083   3    546    545    571
  1084   1    545    546    541
  1085   3    545    546    572
  1086   3    541    546    572
  1087   1    548    547    552
  1088   3    548    547    573
  1089   3    552    547    573
  1090   1    547    548    549
  1091   3    547    548    574
  1092   3    549    548    574
  1093   1    548    549    550
  1094   2    548    549   2054
  1095   2    550    549   2054
  1096   1    549    550    551
  1097   3    549    550   2015
  1098   3    551    550   2015
  1099   1    550    551    552
  1100   3    550    551    576
  1101   3    552    551    576
  1102   4    547    552    534
  1103   1    547    552    551
  1104   4    551    552    534
  1105   6    433    577    578
  1106   7    433    577    579
  1107   7    433    577    580
  1108   8    579    577    578
  1109   8    580    577    578
  1110   9    579    577    580
  1111   6    505    578    577
  1112   7    505    578    581
  1113   7    505    578    582
  1114   8    581    578    577
  1115   8    582    578    577
  1116   9    581    578    582
  1117   6    544    583    584
  1118   7    544    583    585
  1119   7    544    583    586
  1120   8    585    583    584
  1121   8    586    583    584
  1122   9    585    583    586
  1123   6    391    584    583
  1124   8    587    584    583
  1125   8    588    584    583
  1126   7    391    584    587
  1127   7    391    584    588
  1128   9    587    584    588
  1129   6    535    589    590
  1130   7    535    589    591
  1131   7    535    589    592
  1132   8    591    589    590
  1133   8    592    589    590
  1134   9    591    589    592
  1135   6   1840    590    589
  1136   8    593    590    589
  1137   8   2034    590    589
  1138   7   1840    590    593
  1139   7   1840    590   2034
  1140   9    593    590   2034
  1141   6    328    595    596
  1142   7    328    595    597
  1143   7    328    595    598
  1144   8    597    595    596
  1145   8    598    595    596
  1146   9    597    595    598
  1147   6    463    596    595
  1148   8    599    596    595
  1149   8    600    596    595
  1150   7    463    596    599
  1151   7    463    596    600
  1152   9    599    596    600
  1153   6    472    601    602
  1154   7    472    601    603
  1155   7    472    601    604
  1156   8    603    601    602
  1157   8    604    601    602
  1158   9    603    601    604
  1159   6    319    602    601
  1160   8    605    602    601
  1161   8    606    602    601
  1162   7    319    602    605
  1163   7    319    602    606
  1164   9    605    602    606
  1165   6   1009    607   1328
  1166   7   1009    607    609
  1167   7   1009    607    610
  1168   8    609    607   1328
  1169   8    610    607   1328
  1170   9    609    607    610
  1171   6    361    608   1327
  1172   7    361    608   1331
  1173   7    361    608    612
  1174   8   1331    608   1327
  1175   8    612    608   1327
  1176   9   1331    608    612
  1177   6    261    613    614
  1178   7    261    613    615
  1179   7    261    613    616
  1180   8    615    613    614
  1181   8    616    613    614
  1182   9    615    613    616
  1183   6   1989    614    613
  1184   7   1989    614    617
  1185   7   1989    614   2058
  1186   8    617    614    613
  1187   8   2058    614    613
  1188   9    617    614   2058
  1189   6    237    619   2060
  1190   7    237    619    621
  1191   7    237    619    622
  1192   8    621    619   2060
  1193   8    622    619   2060
  1194   9    621    619    622
  1195   6    525    620   2059
  1196   7    525    620    623
  1197   7    525    620    624
  1198   8    623    620   2059
  1199   8    624    620   2059
  1200   9    623    620    624
  1201   6    256    625    626
  1202   7    256    625   2067
  1203   7    256    625    628
  1204   8   2067    625    626
  1205   8    628    625    626
  1206   9   2067    625    628
  1207   6   1743    626    625
  1208   8    629    626    625
  1209   8    630    626    625
  1210   7   1743    626    629
  1211   7   1743    626    630
  1212   9    629    626    630
  1213   6    477    631    632
  1214   7    477    631    633
  1215   7    477    631    634
  1216   8    633    631    632
  1217   8    634    631    632
  1218   9    633    631    634
  1219   6    189    632    631
  1220   7    189    632    635
  1221   7    189    632    636
  1222   8    635    632    631
  1223   8    636    632    631
  1224   9    635    632    636
  1225   6    165    637    638
  1226   7    165    637    639
  1227   7    165    637    640
  1228   8    639    637    638
  1229   8    640    637    638
  1230   9    639    637    640
  1231   6    453    638    637
  1232   7    453    638    641
  1233   7    453    638    642
  1234   8    641    638    637
  1235   8    642    638    637
  1236   9    641    638    642
  1237   6    184    643    644
  1238   7    184    643    645
  1239   7    184    643   1366
  1240   8    645    643    644
  1241   8   1366    643    644
  1242   9    645    643   1366
  1243   6    375    644    643
  1244   8    647    644    643
  1245   8    648    644    643
  1246   7    375    644    647
  1247   7    375    644    648
  1248   9    647    644    648
  1249   6    175    649    650
  1250   7    175    649    651
  1251   7    175    649    652
  1252   8    651    649    650
  1253   8    652    649    650
  1254   9    651    649    652
  1255   6    247    650    649
  1256   8    653    650    649
  1257   8    654    650    649
  1258   7    247    650    653
  1259   7    247    650    654
  1260   9    653    650    654
  1261   6    117    655    656
  1262   7    117    655    657
  1263   7    117    655    658
  1264   8    657    655    656
  1265   8    658    655    656
  1266   9    657    655    658
  1267   6    333    656    655
  1268   8    659    656    655
  1269   8    660    656    655
  1270   7    333    656    659
  1271   7    333    656    660
  1272   9    659    656    660
  1273   6     93    661    662
  1274   7     93    661    663
  1275   7     93    661    664
  1276   8    663    661    662
  1277   8    664    661    662
  1278   9    663    661    664
  1279   6    309    662    661
  1280   8    665    662    661
  1281   8    666    662    661
  1282   7    309    662    665
  1283   7    309    662    666
  1284   9    665    662    666
  1285   6    112    667    668
  1286   7    112    667    669
  1287   7    112    667    670
  1288   8    669    667    668
  1289   8    670    667    668
  1290   9    669    667    670
  1291   6    519    668    667
  1292   8    671    668    667
  1293   8    672    668    667
  1294   7    519    668    671
  1295   7    519    668    672
  1296   9    671    668    672
  1297   6    145    673    674
  1298   7    145    673   1395
  1299   7    145    673    676
  1300   8   1395    673    674
  1301   8    676    673    674
  1302   9   1395    673    676
  1303   6     87    674    673
  1304   8    677    674    673
  1305   8    678    674    673
  1306   7     87    674    677
  1307   7     87    674    678
  1308   9    677    674    678
  1309   6     73    679    680
  1310   7     73    679    681
  1311   7     73    679   1402
  1312   8    681    679    680
  1313   8   1402    679    680
  1314   9    681    679   1402
  1315   6    159    680    679
  1316   7    159    680   1403
  1317   7    159    680    684
  1318   8   1403    680    679
  1319   8    684    680    679
  1320   9   1403    680    684
  1321   6     45    685    686
  1322   7     45    685    687
  1323   7     45    685    688
  1324   8    687    685    686
  1325   8    688    685    686
  1326   9    687    685    688
  1327   6    405    686    685
  1328   7    405    686    689
  1329   7    405    686    690
  1330   8    689    686    685
  1331   8    690    686    685
  1332   9    689    686    690
  1333   6    381    691    692
  1334   7    381    691    693
  1335   7    381    691    694
  1336   8    693    691    692
  1337   8    694    691    692
  1338   9    693    691    694
  1339   6     21    692    691
  1340   8    695    692    691
  1341   8    696    692    691
  1342   7     21    692    695
  1343   7     21    692    696
  1344   9    695    692    696
  1345   6    447    697    698
  1346   7    447    697    699
  1347   7    447    697    700
  1348   8    699    697    698
  1349   8    700    697    698
  1350   9    699    697    700
  1351   6     40    698    697
  1352   8    701    698    697
  1353   8    702    698    697
  1354   7     40    698    701
  1355   7     40    698    702
  1356   9    701    698    702
  1357   6      1    703    704
  1358   7      1    703    705
  1359   7      1    703    706
  1360   8    705    703    704
  1361   8    706    703    704
  1362   9    705    703    706
  1363   6    231    704    703
  1364   8    707    704    703
  1365   8    708    704    703
  1366   7    231    704    707
  1367   7    231    704    708
  1368   9    707    704    708
  1369   6   1455    709    710
  1370   7   1455    709    711
  1371   7   1455    709    712
  1372   8    711    709    710
  1373   8    712    709    710
  1374   9    711    709    712
  1375   6    217    710    709
  1376   7    217    710    713
  1377   7    217    710    714
  1378   8    713    710    709
  1379   8    714    710    709
  1380   9    713    710    714
  1381   6    103    715    716
  1382   7    103    715    717
  1383   7    103    715    718
  1384   8    717    715    716
  1385   8    718    715    716
  1386   9    717    715    718
  1387   6     31    716    715
  1388   8    719    716    715
  1389   8    720    716    715
  1390   7     31    716    719
  1391   7     31    716    720
  1392   9    719    716    720
  1393   1    722    721    726
  1394   2    722    721   1423
  1395   2    726    721   1423
  1396   1    721    722    723
  1397   3    721    722    727
  1398   3    723    722    727
  1399   1    722    723    724
  1400   3    722    723    728
  1401   3    724    723    728
  1402   1    723    724    725
  1403   4    723    724    737
  1404   4    725    724    737
  1405   1    724    725    726
  1406   3    724    725    729
  1407   3    726    725    729
  1408   1    725    726    721
  1409   3    725    726    730
  1410   3    721    726    730
  1411   1    732    731    736
  1412   3    732    731    769
  1413   3    736    731    769
  1414   1    731    732    733
  1415   4    731    732    737
  1416   4    733    732    737
  1417   1    732    733    734
  1418   3    732    733    770
  1419   3    734    733    770
  1420   1    733    734    735
  1421   3    733    734    771
  1422   3    735    734    771
  1423   1    734    735    736
  1424   2    734    735   2869
  1425   2    736    735   2869
  1426   1    735    736    731
  1427   3    735    736    772
  1428   3    731    736    772
  1429   5    724    737    732
  1430   5    724    737    738
  1431   5    724    737    749
  1432   5    732    737    738
  1433   5    732    737    749
  1434   5    738    737    749
  1435   4    739    738    737
  1436   4    743    738    737
  1437   1    739    738    743
  1438   1    738    739     20
  1439   3    738    739    773
  1440   3     20    739    773
  1441   1     19    740    741
  1442   3     19    740     54
  1443   3    741    740     54
  1444   1    740    741    742
  1445   2    740    741   1412
  1446   2    742    741   1412
  1447   1    741    742     23
  1448   3    741    742    775
  1449   3     23    742    775
  1450   1    738    743     22
  1451   3    738    743    776
  1452   3     22    743    776
  1453   1    745    744    749
  1454   3    745    744    777
  1455   3    749    744    777
  1456   1    744    745    746
  1457   3    744    745    778
  1458   3    746    745    778
  1459   1    745    746    747
  1460   4    745    746    750
  1461   4    747    746    750
  1462   1    746    747    748
  1463   3    746    747    779
  1464   3    748    747    779
  1465   1    747    748    749
  1466   3    747    748    780
  1467   3    749    748    780
  1468   4    744    749    737
  1469   4    748    749    737
  1470   1    744    749    748
  1471   5    746    750    754
  1472   5    746    750    757
  1473   5    746    750    768
  1474   5    754    750    757
  1475   5    754    750    768
  1476   5    757    750    768
  1477   1    752    751    756
  1478   2    752    751   1436
  1479   2    756    751   1436
  1480   1    751    752    753
  1481   3    751    752    781
  1482   3    753    752    781
  1483   1    752    753    754
  1484   3    752    753    782
  1485   3    754    753    782
  1486   4    753    754    750
  1487   4    755    754    750
  1488   1    753    754    755
  1489   1    754    755    756
  1490   3    754    755    783
  1491   3    756    755    783
  1492   1    751    756    755
  1493   3    751    756    784
  1494   3    755    756    784
  1495   4    758    757    750
  1496   4    762    757    750
  1497   1    758    757    762
  1498   1    757    758    759
  1499   3    757    758    785
  1500   3    759    758    785
  1501   1    758    759    760
  1502   3    758    759    786
  1503   3    760    759    786
  1504   1    759    760    761
  1505   2    759    760   1418
  1506   2    761    760   1418
  1507   1    760    761    762
  1508   3    760    761    787
  1509   3    762    761    787
  1510   1    757    762    761
  1511   3    757    762    788
  1512   3    761    762    788
  1513   1    764    763    768
  1514   3    764    763    789
  1515   3    768    763    789
  1516   1    763    764    765
  1517   3    763    764    790
  1518   3    765    764    790
  1519   1    764    765    766
  1520   2    764    765   1405
  1521   2    766    765   1405
  1522   1    765    766    767
  1523   3    765    766    791
  1524   3    767    766    791
  1525   1    766    767    768
  1526   3    766    767    792
  1527   3    768    767    792
  1528   4    763    768    750
  1529   4    767    768    750
  1530   1    763    768    767
  1531   1     74    793    798
  1532   2     74    793   1399
  1533   2    798    793   1399
  1534   1     73    794    795
  1535   3     73    794    799
  1536   3    795    794    799
  1537   1    794    795     76
  1538   3    794    795    800
  1539   3     76    795    800
  1540   1     75    796    797
  1541   4     75    796    809
  1542   4    797    796    809
  1543   1    796    797    798
  1544   3    796    797    801
  1545   3    798    797    801
  1546   1    797    798    793
  1547   3    797    798    802
  1548   3    793    798    802
  1549   1    804    803    808
  1550   3    804    803    841
  1551   3    808    803    841
  1552   1    803    804    805
  1553   4    803    804    809
  1554   4    805    804    809
  1555   1    804    805    806
  1556   3    804    805    842
  1557   3    806    805    842
  1558   1    805    806    807
  1559   3    805    806    843
  1560   3    807    806    843
  1561   1    806    807    808
  1562   2    806    807   1394
  1563   2    808    807   1394
  1564   1    807    808    803
  1565   3    807    808    844
  1566   3    803    808    844
  1567   5    804    809    796
  1568   5    804    809    810
  1569   5    804    809    821
  1570   5    796    809    810
  1571   5    796    809    821
  1572   5    810    809    821
  1573   4    811    810    809
  1574   4     95    810    809
  1575   1    811    810     95
  1576   1    810    811     92
  1577   3    810    811    845
  1578   3     92    811    845
  1579   1     91    812    813
  1580   3     91    812    126
  1581   3    813    812    126
  1582   1    812    813    814
  1583   2    812    813   1381
  1584   2    814    813   1381
  1585   1    813    814    815
  1586   3    813    814    847
  1587   3    815    814    847
  1588   1     90    815    814
  1589   3     90    815    848
  1590   3    814    815    848
  1591   1    817    816    821
  1592   3    817    816    849
  1593   3    821    816    849
  1594   1    816    817    818
  1595   3    816    817    850
  1596   3    818    817    850
  1597   1    817    818    819
  1598   4    817    818    822
  1599   4    819    818    822
  1600   1    818    819    820
  1601   3    818    819    851
  1602   3    820    819    851
  1603   1    819    820    821
  1604   3    819    820    852
  1605   3    821    820    852
  1606   4    820    821    809
  1607   1    820    821    816
  1608   4    816    821    809
  1609   5    818    822    826
  1610   5    818    822    829
  1611   5    818    822    840
  1612   5    826    822    829
  1613   5    826    822    840
  1614   5    829    822    840
  1615   1    824    823    828
  1616   2    824    823   1435
  1617   2    828    823   1435
  1618   1    823    824    825
  1619   3    823    824    853
  1620   3    825    824    853
  1621   1    824    825    826
  1622   3    824    825    854
  1623   3    826    825    854
  1624   4    825    826    822
  1625   1    825    826    827
  1626   4    827    826    822
  1627   1    826    827    828
  1628   3    826    827    855
  1629   3    828    827    855
  1630   1    823    828    827
  1631   3    823    828    856
  1632   3    827    828    856
  1633   4    830    829    822
  1634   4    834    829    822
  1635   1    830    829    834
  1636   1    829    830    831
  1637   3    829    830    857
  1638   3    831    830    857
  1639   1    830    831    832
  1640   3    830    831    858
  1641   3    832    831    858
  1642   1    831    832    833
  1643   2    831    832   1387
  1644   2    833    832   1387
  1645   1    832    833    834
  1646   3    832    833    859
  1647   3    834    833    859
  1648   1    829    834    833
  1649   3    829    834    860
  1650   3    833    834    860
  1651   1    836    835    840
  1652   3    836    835    861
  1653   3    840    835    861
  1654   1    835    836    837
  1655   3    835    836    862
  1656   3    837    836    862
  1657   1    836    837    838
  1658   2    836    837   1375
  1659   2    838    837   1375
  1660   1    837    838    839
  1661   3    837    838    863
  1662   3    839    838    863
  1663   1    838    839    840
  1664   3    838    839    864
  1665   3    840    839    864
  1666   4    839    840    822
  1667   4    835    840    822
  1668   1    839    840    835
  1669   1    866    865    150
  1670   2    866    865   1393
  1671   2    150    865   1393
  1672   1    865    866    867
  1673   3    865    866    871
  1674   3    867    866    871
  1675   1    866    867    868
  1676   3    866    867    872
  1677   3    868    867    872
  1678   1    867    868    149
  1679   4    867    868    881
  1680   4    149    868    881
  1681   1    148    869    870
  1682   3    148    869    873
  1683   3    870    869    873
  1684   1    869    870    145
  1685   3    869    870    874
  1686   3    145    870    874
  1687   1    156    875    880
  1688   3    156    875    913
  1689   3    880    875    913
  1690   1    155    876    877
  1691   4    155    876   2321
  1692   4    877    876   2321
  1693   1    876    877    878
  1694   3    876    877    914
  1695   3    878    877    914
  1696   1    877    878    879
  1697   3    877    878    915
  1698   3    879    878    915
  1699   1    878    879    160
  1700   2    878    879   1400
  1701   2    160    879   1400
  1702   1    159    880    875
  1703   3    159    880    916
  1704   3    875    880    916
  1705   5    868    881   2316
  1706   5    868    881    882
  1707   5    868    881    173
  1708   5   2316    881    882
  1709   5   2316    881    173
  1710   5    882    881    173
  1711   4    883    882    881
  1712   4    887    882    881
  1713   1    883    882    887
  1714   1    882    883    884
  1715   3    882    883    917
  1716   3    884    883    917
  1717   1    883    884    885
  1718   3    883    884    918
  1719   3    885    884    918
  1720   1    884    885    886
  1721   2    884    885   1357
  1722   2    886    885   1357
  1723   1    885    886    887
  1724   3    885    886    919
  1725   3    887    886    919
  1726   1    882    887    886
  1727   3    882    887    920
  1728   3    886    887    920
  1729   1    889    888    893
  1730   3    889    888    921
  1731   3    893    888    921
  1732   1    888    889    890
  1733   3    888    889    922
  1734   3    890    889    922
  1735   1    889    890    891
  1736   4    889    890    894
  1737   4    891    890    894
  1738   1    890    891    892
  1739   3    890    891    923
  1740   3    892    891    923
  1741   1    891    892    893
  1742   3    891    892    204
  1743   3    893    892    204
  1744   4    888    893    161
  1745   1    888    893    892
  1746   4    892    893    161
  1747   5    890    894    898
  1748   5    890    894    901
  1749   5    890    894    912
  1750   5    898    894    901
  1751   5    898    894    912
  1752   5    901    894    912
  1753   1    896    895    900
  1754   2    896    895   1369
  1755   2    900    895   1369
  1756   1    895    896    897
  1757   3    895    896    925
  1758   3    897    896    925
  1759   1    896    897    898
  1760   3    896    897    926
  1761   3    898    897    926
  1762   4    897    898    894
  1763   4    899    898    894
  1764   1    897    898    899
  1765   1    898    899    900
  1766   3    898    899    927
  1767   3    900    899    927
  1768   1    899    900    895
  1769   3    899    900    928
  1770   3    895    900    928
  1771   4    902    901    894
  1772   4    906    901    894
  1773   1    902    901    906
  1774   1    901    902    903
  1775   3    901    902    929
  1776   3    903    902    929
  1777   1    902    903    904
  1778   3    902    903    930
  1779   3    904    903    930
  1780   1    903    904    185
  1781   2    903    904   1363
  1782   2    185    904   1363
  1783   1    184    905    186
  1784   3    184    905    931
  1785   3    186    905    931
  1786   1    901    906    185
  1787   3    901    906    932
  1788   3    185    906    932
  1789   1    908    907    912
  1790   3    908    907    933
  1791   3    912    907    933
  1792   1    907    908    909
  1793   3    907    908    934
  1794   3    909    908    934
  1795   1    908    909    910
  1796   2    908    909   1352
  1797   2    910    909   1352
  1798   1    909    910    911
  1799   3    909    910    935
  1800   3    911    910    935
  1801   1    910    911    912
  1802   3    910    911    936
  1803   3    912    911    936
  1804   1    911    912    907
  1805   4    911    912    894
  1806   4    907    912    894
  1807   1    938    937    942
  1808   2    938    937   1430
  1809   2    942    937   1430
  1810   1    937    938    939
  1811   3    937    938    943
  1812   3    939    938    943
  1813   1    938    939    940
  1814   3    938    939    944
  1815   3    940    939    944
  1816   1    939    940    941
  1817   4    939    940    953
  1818   4    941    940    953
  1819   1    940    941    942
  1820   3    940    941    945
  1821   3    942    941    945
  1822   1    937    942    941
  1823   3    937    942    946
  1824   3    941    942    946
  1825   1    948    947    952
  1826   3    948    947    985
  1827   3    952    947    985
  1828   1    947    948    949
  1829   4    947    948    953
  1830   4    949    948    953
  1831   1    948    949    950
  1832   3    948    949    986
  1833   3    950    949    986
  1834   1    949    950    951
  1835   3    949    950    987
  1836   3    951    950    987
  1837   1    950    951    952
  1838   2    950    951   1424
  1839   2    952    951   1424
  1840   1    951    952    947
  1841   3    951    952    988
  1842   3    947    952    988
  1843   5    940    953    948
  1844   5    940    953    954
  1845   5    940    953    965
  1846   5    948    953    954
  1847   5    948    953    965
  1848   5    954    953    965
  1849   4    955    954    953
  1850   4    959    954    953
  1851   1    955    954    959
  1852   1    954    955    956
  1853   3    954    955    989
  1854   3    956    955    989
  1855   1    955    956    957
  1856   3    955    956   2430
  1857   3    957    956   2430
  1858   1    956    957    958
  1859   2    956    957   1339
  1860   2    958    957   1339
  1861   1    957    958    959
  1862   3    957    958    991
  1863   3    959    958    991
  1864   1    954    959    958
  1865   3    954    959    992
  1866   3    958    959    992
  1867   1    961    960    245
  1868   3    961    960    993
  1869   3    245    960    993
  1870   1    960    961    962
  1871   3    960    961    994
  1872   3    962    961    994
  1873   1    961    962    963
  1874   4    961    962    966
  1875   4    963    962    966
  1876   1    962    963    244
  1877   3    962    963    995
  1878   3    244    963    995
  1879   1    243    964    965
  1880   3    243    964    996
  1881   3    965    964    996
  1882   1    964    965    240
  1883   4    964    965    953
  1884   4    240    965    953
  1885   5    962    966    970
  1886   5    962    966    973
  1887   5    962    966    984
  1888   5    970    966    973
  1889   5    970    966    984
  1890   5    973    966    984
  1891   1    968    967    972
  1892   2    968    967   1370
  1893   2    972    967   1370
  1894   1    967    968    969
  1895   3    967    968    997
  1896   3    969    968    997
  1897   1    968    969    970
  1898   3    968    969    998
  1899   3    970    969    998
  1900   4    969    970    966
  1901   1    969    970    971
  1902   4    971    970    966
  1903   1    970    971    972
  1904   3    970    971    999
  1905   3    972    971    999
  1906   1    967    972    971
  1907   3    967    972   1000
  1908   3    971    972   1000
  1909   4    974    973    966
  1910   4    978    973    966
  1911   1    974    973    978
  1912   1    973    974    975
  1913   3    973    974   2441
  1914   3    975    974   2441
  1915   1    974    975    976
  1916   3    974    975   2442
  1917   3    976    975   2442
  1918   1    975    976    977
  1919   2    975    976   1345
  1920   2    977    976   1345
  1921   1    976    977    978
  1922   3    976    977   1003
  1923   3    978    977   1003
  1924   1    977    978    973
  1925   3    977    978   1004
  1926   3    973    978   1004
  1927   1    980    979    984
  1928   3    980    979   1005
  1929   3    984    979   1005
  1930   1    979    980   2421
  1931   3    979    980   1006
  1932   3   2421    980   1006
  1933   1   2420    981    982
  1934   2   2420    981   1333
  1935   2    982    981   1333
  1936   1    981    982   2423
  1937   3    981    982   1007
  1938   3   2423    982   1007
  1939   1   2422    983    984
  1940   3   2422    983   1008
  1941   3    984    983   1008
  1942   1    983    984    979
  1943   4    983    984    966
  1944   4    979    984    966
  1945   1   1010   1009   1014
  1946   2   1010   1009    607
  1947   2   1014   1009    607
  1948   1   1009   1010   1011
  1949   3   1009   1010    295
  1950   3   1011   1010    295
  1951   1   1010   1011   1012
  1952   3   1010   1011   1016
  1953   3   1012   1011   1016
  1954   1   1011   1012   1013
  1955   4   1011   1012   1025
  1956   4   1013   1012   1025
  1957   1   1012   1013   1014
  1958   3   1012   1013   1017
  1959   3   1014   1013   1017
  1960   1   1013   1014   1009
  1961   3   1013   1014   1018
  1962   3   1009   1014   1018
  1963   1   1020   1019   1024
  1964   3   1020   1019   1057
  1965   3   1024   1019   1057
  1966   1   1019   1020   1021
  1967   4   1019   1020   1025
  1968   4   1021   1020   1025
  1969   1   1020   1021   1022
  1970   3   1020   1021   1058
  1971   3   1022   1021   1058
  1972   1   1021   1022   1023
  1973   3   1021   1022   1059
  1974   3   1023   1022   1059
  1975   1   1022   1023   1024
  1976   2   1022   1023   2786
  1977   2   1024   1023   2786
  1978   1   1019   1024   1023
  1979   3   1019   1024   1060
  1980   3   1023   1024   1060
  1981   5   1012   1025   1020
  1982   5   1012   1025   1026
  1983   5   1012   1025   1037
  1984   5   1020   1025   1026
  1985   5   1020   1025   1037
  1986   5   1026   1025   1037
  1987   4   1027   1026   1025
  1988   4   1031   1026   1025
  1989   1   1027   1026   1031
  1990   1   1026   1027   1028
  1991   3   1026   1027   1061
  1992   3   1028   1027   1061
  1993   1   1027   1028   1029
  1994   3   1027   1028   1062
  1995   3   1029   1028   1062
  1996   1   1028   1029   1030
  1997   2   1028   1029   1382
  1998   2   1030   1029   1382
  1999   1   1029   1030   1031
  2000   3   1029   1030   1063
  2001   3   1031   1030   1063
  2002   1   1030   1031   1026
  2003   3   1030   1031   1064
  2004   3   1026   1031   1064
  2005   1   1033   1032   1037
  2006   3   1033   1032   1065
  2007   3   1037   1032   1065
  2008   1   1032   1033   1034
  2009   3   1032   1033   1066
  2010   3   1034   1033   1066
  2011   1   1033   1034   1035
  2012   4   1033   1034   1038
  2013   4   1035   1034   1038
  2014   1   1034   1035   1036
  2015   3   1034   1035   1067
  2016   3   1036   1035   1067
  2017   1   1035   1036   1037
  2018   3   1035   1036   1068
  2019   3   1037   1036   1068
  2020   4   1032   1037   1025
  2021   1   1032   1037   1036
  2022   4   1036   1037   1025
  2023   5   1034   1038   1042
  2024   5   1034   1038   1045
  2025   5   1034   1038   1056
  2026   5   1042   1038   1045
  2027   5   1042   1038   1056
  2028   5   1045   1038   1056
  2029   1   1040   1039   1044
  2030   2   1040   1039   1322
  2031   2   1044   1039   1322
  2032   1   1039   1040   1041
  2033   3   1039   1040   1069
  2034   3   1041   1040   1069
  2035   1   1040   1041   1042
  2036   3   1040   1041   1070
  2037   3   1042   1041   1070
  2038   4   1041   1042   1038
  2039   4   1043   1042   1038
  2040   1   1041   1042   1043
  2041   1   1042   1043   1044
  2042   3   1042   1043   1071
  2043   3   1044   1043   1071
  2044   1   1043   1044   1039
  2045   3   1043   1044   1072
  2046   3   1039   1044   1072
  2047   4   1046   1045   1038
  2048   4   1050   1045   1038
  2049   1   1046   1045   1050
  2050   1   1045   1046   1047
  2051   3   1045   1046   1073
  2052   3   1047   1046   1073
  2053   1   1046   1047   1048
  2054   3   1046   1047   1074
  2055   3   1048   1047   1074
  2056   1   1047   1048   1049
  2057   2   1047   1048   1315
  2058   2   1049   1048   1315
  2059   1   1048   1049   1050
  2060   3   1048   1049   1075
  2061   3   1050   1049   1075
  2062   1   1045   1050   1049
  2063   3   1045   1050   1076
  2064   3   1049   1050   1076
  2065   1   1052   1051   1056
  2066   3   1052   1051   1077
  2067   3   1056   1051   1077
  2068   1   1051   1052   1053
  2069   3   1051   1052   1078
  2070   3   1053   1052   1078
  2071   1   1052   1053   1054
  2072   2   1052   1053   1376
  2073   2   1054   1053   1376
  2074   1   1053   1054   1055
  2075   3   1053   1054   1079
  2076   3   1055   1054   1079
  2077   1   1054   1055   1056
  2078   3   1054   1055   1080
  2079   3   1056   1055   1080
  2080   4   1055   1056   1038
  2081   1   1055   1056   1051
  2082   4   1051   1056   1038
  2083   1   1082   1081   1086
  2084   2   1082   1081   1328
  2085   2   1086   1081   1328
  2086   1   1081   1082   1083
  2087   3   1081   1082    367
  2088   3   1083   1082    367
  2089   1   1082   1083   1084
  2090   3   1082   1083   1088
  2091   3   1084   1083   1088
  2092   1   1083   1084   1085
  2093   4   1083   1084   1097
  2094   4   1085   1084   1097
  2095   1   1084   1085   1086
  2096   3   1084   1085   1089
  2097   3   1086   1085   1089
  2098   1   1085   1086   1081
  2099   3   1085   1086   1090
  2100   3   1081   1086   1090
  2101   1   1092   1091   1096
  2102   3   1092   1091   1129
  2103   3   1096   1091   1129
  2104   1   1091   1092   1093
  2105   4   1091   1092   1097
  2106   4   1093   1092   1097
  2107   1   1092   1093   1094
  2108   3   1092   1093   1130
  2109   3   1094   1093   1130
  2110   1   1093   1094   1095
  2111   3   1093   1094   1131
  2112   3   1095   1094   1131
  2113   1   1094   1095   1096
  2114   2   1094   1095   1364
  2115   2   1096   1095   1364
  2116   1   1091   1096   1095
  2117   3   1091   1096   1132
  2118   3   1095   1096   1132
  2119   5   1084   1097   1092
  2120   5   1084   1097   1098
  2121   5   1084   1097   1109
  2122   5   1092   1097   1098
  2123   5   1092   1097   1109
  2124   5   1098   1097   1109
  2125   4   1099   1098   1097
  2126   4   1103   1098   1097
  2127   1   1099   1098   1103
  2128   1   1098   1099   1100
  2129   3   1098   1099   1133
  2130   3   1100   1099   1133
  2131   1   1099   1100   1101
  2132   3   1099   1100   1134
  2133   3   1101   1100   1134
  2134   1   1100   1101   1102
  2135   2   1100   1101   1411
  2136   2   1102   1101   1411
  2137   1   1101   1102   1103
  2138   3   1101   1102   1135
  2139   3   1103   1102   1135
  2140   1   1102   1103   1098
  2141   3   1102   1103   1136
  2142   3   1098   1103   1136
  2143   1   1105   1104   1109
  2144   3   1105   1104   1137
  2145   3   1109   1104   1137
  2146   1   1104   1105   1106
  2147   3   1104   1105   1138
  2148   3   1106   1105   1138
  2149   1   1105   1106   1107
  2150   4   1105   1106   1110
  2151   4   1107   1106   1110
  2152   1   1106   1107   1108
  2153   3   1106   1107   1139
  2154   3   1108   1107   1139
  2155   1   1107   1108   1109
  2156   3   1107   1108   1140
  2157   3   1109   1108   1140
  2158   4   1104   1109   1097
  2159   1   1104   1109   1108
  2160   4   1108   1109   1097
  2161   5   1106   1110   1114
  2162   5   1106   1110   1117
  2163   5   1106   1110   1128
  2164   5   1114   1110   1117
  2165   5   1114   1110   1128
  2166   5   1117   1110   1128
  2167   1   1112   1111   1116
  2168   2   1112   1111   1304
  2169   2   1116   1111   1304
  2170   1   1111   1112   1113
  2171   3   1111   1112   1141
  2172   3   1113   1112   1141
  2173   1   1112   1113   1114
  2174   3   1112   1113   1142
  2175   3   1114   1113   1142
  2176   4   1113   1114   1110
  2177   1   1113   1114   1115
  2178   4   1115   1114   1110
  2179   1   1114   1115   1116
  2180   3   1114   1115   1143
  2181   3   1116   1115   1143
  2182   1   1111   1116   1115
  2183   3   1111   1116   1144
  2184   3   1115   1116   1144
  2185   4   1118   1117   1110
  2186   4   1122   1117   1110
  2187   1   1118   1117   1122
  2188   1   1117   1118   1119
  2189   3   1117   1118   1145
  2190   3   1119   1118   1145
  2191   1   1118   1119   1120
  2192   3   1118   1119   1146
  2193   3   1120   1119   1146
  2194   1   1119   1120   1121
  2195   2   1119   1120   2750
  2196   2   1121   1120   2750
  2197   1   1120   1121   1122
  2198   3   1120   1121   1147
  2199   3   1122   1121   1147
  2200   1   1117   1122   1121
  2201   3   1117   1122   1148
  2202   3   1121   1122   1148
  2203   1   1124   1123   1128
  2204   3   1124   1123   1149
  2205   3   1128   1123   1149
  2206   1   1123   1124   1125
  2207   3   1123   1124   1150
  2208   3   1125   1124   1150
  2209   1   1124   1125   1126
  2210   2   1124   1125   1406
  2211   2   1126   1125   1406
  2212   1   1125   1126   1127
  2213   3   1125   1126   1151
  2214   3   1127   1126   1151
  2215   1   1126   1127   1128
  2216   3   1126   1127   1152
  2217   3   1128   1127   1152
  2218   1   1127   1128   1123
  2219   4   1127   1128   1110
  2220   4   1123   1128   1110
  2221   1   1154   1153   1158
  2222   2   1154   1153   1297
  2223   2   1158   1153   1297
  2224   1   1153   1154   1155
  2225   3   1153   1154   1159
  2226   3   1155   1154   1159
  2227   1   1154   1155   1156
  2228   3   1154   1155   1160
  2229   3   1156   1155   1160
  2230   1   1155   1156   1157
  2231   4   1155   1156   1169
  2232   4   1157   1156   1169
  2233   1   1156   1157   1158
  2234   3   1156   1157   1161
  2235   3   1158   1157   1161
  2236   1   1153   1158   1157
  2237   3   1153   1158   1162
  2238   3   1157   1158   1162
  2239   1   1164   1163   1168
  2240   3   1164   1163   1201
  2241   3   1168   1163   1201
  2242   1   1163   1164   1165
  2243   4   1163   1164   2609
  2244   4   1165   1164   2609
  2245   1   1164   1165   1166
  2246   3   1164   1165   1202
  2247   3   1166   1165   1202
  2248   1   1165   1166   1167
  2249   3   1165   1166   1203
  2250   3   1167   1166   1203
  2251   1   1166   1167   1168
  2252   2   1166   1167   1417
  2253   2   1168   1167   1417
  2254   1   1167   1168   1163
  2255   3   1167   1168   1204
  2256   3   1163   1168   1204
  2257   5   2604   1169   1156
  2258   5   2604   1169   2610
  2259   5   2604   1169   1181
  2260   5   1156   1169   2610
  2261   5   1156   1169   1181
  2262   5   2610   1169   1181
  2263   4   1171   1170   2609
  2264   4   2615   1170   2609
  2265   1   1171   1170   2615
  2266   1   1170   1171   1172
  2267   3   1170   1171   1205
  2268   3   1172   1171   1205
  2269   1   1171   1172   1173
  2270   3   1171   1172   1206
  2271   3   1173   1172   1206
  2272   1   1172   1173   2614
  2273   2   1172   1173   1358
  2274   2   2614   1173   1358
  2275   1   2613   1174   1175
  2276   3   2613   1174   1207
  2277   3   1175   1174   1207
  2278   1   1174   1175   2610
  2279   3   1174   1175   1208
  2280   3   2610   1175   1208
  2281   1   1177   1176   1181
  2282   3   1177   1176   2649
  2283   3   1181   1176   2649
  2284   1   1176   1177   1178
  2285   3   1176   1177   2650
  2286   3   1178   1177   2650
  2287   1   1177   1178   1179
  2288   4   1177   1178   1182
  2289   4   1179   1178   1182
  2290   1   1178   1179   1180
  2291   3   1178   1179   1211
  2292   3   1180   1179   1211
  2293   1   1179   1180   1181
  2294   3   1179   1180   1212
  2295   3   1181   1180   1212
  2296   4   1180   1181   1169
  2297   1   1180   1181   1176
  2298   4   1176   1181   1169
  2299   5   1178   1182   1186
  2300   5   1178   1182   1189
  2301   5   1178   1182   2640
  2302   5   1186   1182   1189
  2303   5   1186   1182   2640
  2304   5   1189   1182   2640
  2305   1   1184   1183   1188
  2306   2   1184   1183   1316
  2307   2   1188   1183   1316
  2308   1   1183   1184   2625
  2309   3   1183   1184   1213
  2310   3   2625   1184   1213
  2311   1   2624   1185   1186
  2312   3   2624   1185   1214
  2313   3   1186   1185   1214
  2314   4   1185   1186   1182
  2315   1   1185   1186   2627
  2316   4   2627   1186   1182
  2317   1   2626   1187   1188
  2318   3   2626   1187   1215
  2319   3   1188   1187   1215
  2320   1   1187   1188   1183
  2321   3   1187   1188   1216
  2322   3   1183   1188   1216
  2323   4   1190   1189   1182
  2324   4   1194   1189   1182
  2325   1   1190   1189   1194
  2326   1   1189   1190   1191
  2327   3   1189   1190   1217
  2328   3   1191   1190   1217
  2329   1   1190   1191   1192
  2330   3   1190   1191   1218
  2331   3   1192   1191   1218
  2332   1   1191   1192   1193
  2333   2   1191   1192   1321
  2334   2   1193   1192   1321
  2335   1   1192   1193   1194
  2336   3   1192   1193   1219
  2337   3   1194   1193   1219
  2338   1   1189   1194   1193
  2339   3   1189   1194   1220
  2340   3   1193   1194   1220
  2341   1   1196   1195   1200
  2342   3   1196   1195   2661
  2343   3   1200   1195   2661
  2344   1   1195   1196   1197
  2345   3   1195   1196   1222
  2346   3   1197   1196   1222
  2347   1   1196   1197   1198
  2348   2   1196   1197   1351
  2349   2   1198   1197   1351
  2350   1   1197   1198   1199
  2351   3   1197   1198   1223
  2352   3   1199   1198   1223
  2353   1   1198   1199   1200
  2354   3   1198   1199   1224
  2355   3   1200   1199   1224
  2356   1   1195   1200   1199
  2357   4   1195   1200   2622
  2358   4   1199   1200   2622
  2359   1   1226   1225   1230
  2360   2   1226   1225   1298
  2361   2   1230   1225   1298
  2362   1   1225   1226   1227
  2363   3   1225   1226   1231
  2364   3   1227   1226   1231
  2365   1   1226   1227   1228
  2366   3   1226   1227   1232
  2367   3   1228   1227   1232
  2368   1   1227   1228   2669
  2369   4   1227   1228   1241
  2370   4   2669   1228   1241
  2371   1   2668   1229   2670
  2372   3   2668   1229   1233
  2373   3   2670   1229   1233
  2374   1   2669   1230   1225
  2375   3   2669   1230   2674
  2376   3   1225   1230   2674
  2377   1   1236   1235   1240
  2378   3   1236   1235   1273
  2379   3   1240   1235   1273
  2380   1   1235   1236   1237
  2381   4   1235   1236   1241
  2382   4   1237   1236   1241
  2383   1   1236   1237   1238
  2384   3   1236   1237   1274
  2385   3   1238   1237   1274
  2386   1   1237   1238   1239
  2387   3   1237   1238   1275
  2388   3   1239   1238   1275
  2389   1   1238   1239   1240
  2390   2   1238   1239   1388
  2391   2   1240   1239   1388
  2392   1   1235   1240   1239
  2393   3   1235   1240   1276
  2394   3   1239   1240   1276
  2395   5   1228   1241   1236
  2396   5   1228   1241   1242
  2397   5   1228   1241   2693
  2398   5   1236   1241   1242
  2399   5   1236   1241   2693
  2400   5   1242   1241   2693
  2401   4   1243   1242   1241
  2402   4   1247   1242   1241
  2403   1   1243   1242   1247
  2404   1   1242   1243   1244
  2405   3   1242   1243   1277
  2406   3   1244   1243   1277
  2407   1   1243   1244   1245
  2408   3   1243   1244   1278
  2409   3   1245   1244   1278
  2410   1   1244   1245   1246
  2411   2   1244   1245   1340
  2412   2   1246   1245   1340
  2413   1   1245   1246   1247
  2414   3   1245   1246   1279
  2415   3   1247   1246   1279
  2416   1   1246   1247   1242
  2417   3   1246   1247   2720
  2418   3   1242   1247   2720
  2419   1   1249   1248   1253
  2420   3   1249   1248   1281
  2421   3   1253   1248   1281
  2422   1   1248   1249   1250
  2423   3   1248   1249   1282
  2424   3   1250   1249   1282
  2425   1   1249   1250   1251
  2426   4   1249   1250   1254
  2427   4   1251   1250   1254
  2428   1   1250   1251   1252
  2429   3   1250   1251   1283
  2430   3   1252   1251   1283
  2431   1   1251   1252   1253
  2432   3   1251   1252   1284
  2433   3   1253   1252   1284
  2434   1   1248   1253   1252
  2435   4   1248   1253   2681
  2436   4   1252   1253   2681
  2437   5   1250   1254   1258
  2438   5   1250   1254   1261
  2439   5   1250   1254   1272
  2440   5   1258   1254   1261
  2441   5   1258   1254   1272
  2442   5   1261   1254   1272
  2443   1   1256   1255   1260
  2444   2   1256   1255   1309
  2445   2   1260   1255   1309
  2446   1   1255   1256   1257
  2447   3   1255   1256   1285
  2448   3   1257   1256   1285
  2449   1   1256   1257   1258
  2450   3   1256   1257   1286
  2451   3   1258   1257   1286
  2452   4   1257   1258   1254
  2453   4   1259   1258   1254
  2454   1   1257   1258   1259
  2455   1   1258   1259   1260
  2456   3   1258   1259   1287
  2457   3   1260   1259   1287
  2458   1   1259   1260   1255
  2459   3   1259   1260   1288
  2460   3   1255   1260   1288
  2461   4   1262   1261   1254
  2462   4   1266   1261   1254
  2463   1   1262   1261   1266
  2464   1   1261   1262   1263
  2465   3   1261   1262   1289
  2466   3   1263   1262   1289
  2467   1   1262   1263   1264
  2468   3   1262   1263   1290
  2469   3   1264   1263   1290
  2470   1   1263   1264   1265
  2471   2   1263   1264   1303
  2472   2   1265   1264   1303
  2473   1   1264   1265   1266
  2474   3   1264   1265   1291
  2475   3   1266   1265   1291
  2476   1   1265   1266   1261
  2477   3   1265   1266   1292
  2478   3   1261   1266   1292
  2479   1   1268   1267   1272
  2480   3   1268   1267   1293
  2481   3   1272   1267   1293
  2482   1   1267   1268   1269
  2483   3   1267   1268   1294
  2484   3   1269   1268   1294
  2485   1   1268   1269   1270
  2486   2   1268   1269   2774
  2487   2   1270   1269   2774
  2488   1   1269   1270   1271
  2489   3   1269   1270   2735
  2490   3   1271   1270   2735
  2491   1   1270   1271   1272
  2492   3   1270   1271   1296
  2493   3   1272   1271   1296
  2494   4   1267   1272   1254
  2495   1   1267   1272   1271
  2496   4   1271   1272   1254
  2497   6   1153   1297   1298
  2498   7   1153   1297   1299
  2499   7   1153   1297   1300
  2500   8   1299   1297   1298
  2501   8   1300   1297   1298
  2502   9   1299   1297   1300
  2503   6   1225   1298   1297
  2504   7   1225   1298   1301
  2505   7   1225   1298   1302
  2506   8   1301   1298   1297
  2507   8   1302   1298   1297
  2508   9   1301   1298   1302
  2509   6   1264   1303   1304
  2510   7   1264   1303   1305
  2511   7   1264   1303   1306
  2512   8   1305   1303   1304
  2513   8   1306   1303   1304
  2514   9   1305   1303   1306
  2515   6   1111   1304   1303
  2516   8   1307   1304   1303
  2517   8   1308   1304   1303
  2518   7   1111   1304   1307
  2519   7   1111   1304   1308
  2520   9   1307   1304   1308
  2521   6   1255   1309   1310
  2522   7   1255   1309   1311
  2523   7   1255   1309   1312
  2524   8   1311   1309   1310
  2525   8   1312   1309   1310
  2526   9   1311   1309   1312
  2527   6   2560   1310   1309
  2528   8   1313   1310   1309
  2529   8   2754   1310   1309
  2530   7   2560   1310   1313
  2531   7   2560   1310   2754
  2532   9   1313   1310   2754
  2533   6   1048   1315   1316
  2534   7   1048   1315   1317
  2535   7   1048   1315   1318
  2536   8   1317   1315   1316
  2537   8   1318   1315   1316
  2538   9   1317   1315   1318
  2539   6   1183   1316   1315
  2540   8   1319   1316   1315
  2541   8   1320   1316   1315
  2542   7   1183   1316   1319
  2543   7   1183   1316   1320
  2544   9   1319   1316   1320
  2545   6   1192   1321   1322
  2546   7   1192   1321   1323
  2547   7   1192   1321   1324
  2548   8   1323   1321   1322
  2549   8   1324   1321   1322
  2550   9   1323   1321   1324
  2551   6   1039   1322   1321
  2552   8   1325   1322   1321
  2553   8   1326   1322   1321
  2554   7   1039   1322   1325
  2555   7   1039   1322   1326
  2556   9   1325   1322   1326
  2557   6    289   1327    608
  2558   7    289   1327   1329
  2559   7    289   1327   1330
  2560   8   1329   1327    608
  2561   8   1330   1327    608
  2562   9   1329   1327   1330
  2563   6   1081   1328    607
  2564   7   1081   1328    611
  2565   7   1081   1328   1332
  2566   8    611   1328    607
  2567   8   1332   1328    607
  2568   9    611   1328   1332
  2569   6    981   1333   1334
  2570   7    981   1333   1335
  2571   7    981   1333   1336
  2572   8   1335   1333   1334
  2573   8   1336   1333   1334
  2574   9   1335   1333   1336
  2575   6   2709   1334   1333
  2576   7   2709   1334   1337
  2577   7   2709   1334   2778
  2578   8   1337   1334   1333
  2579   8   2778   1334   1333
  2580   9   1337   1334   2778
  2581   6    957   1339   2780
  2582   7    957   1339   1341
  2583   7    957   1339   1342
  2584   8   1341   1339   2780
  2585   8   1342   1339   2780
  2586   9   1341   1339   1342
  2587   6   1245   1340   2779
  2588   7   1245   1340   1343
  2589   7   1245   1340   1344
  2590   8   1343   1340   2779
  2591   8   1344   1340   2779
  2592   9   1343   1340   1344
  2593   6    976   1345   1346
  2594   7    976   1345   2787
  2595   7    976   1345   1348
  2596   8   2787   1345   1346
  2597   8   1348   1345   1346
  2598   9   2787   1345   1348
  2599   6   2463   1346   1345
  2600   8   1349   1346   1345
  2601   8   1350   1346   1345
  2602   7   2463   1346   1349
  2603   7   2463   1346   1350
  2604   9   1349   1346   1350
  2605   6   1197   1351   1352
  2606   7   1197   1351   1353
  2607   7   1197   1351   1354
  2608   8   1353   1351   1352
  2609   8   1354   1351   1352
  2610   9   1353   1351   1354
  2611   6    909   1352   1351
  2612   7    909   1352   1355
  2613   7    909   1352   1356
  2614   8   1355   1352   1351
  2615   8   1356   1352   1351
  2616   9   1355   1352   1356
  2617   6    885   1357   1358
  2618   7    885   1357   1359
  2619   7    885   1357   1360
  2620   8   1359   1357   1358
  2621   8   1360   1357   1358
  2622   9   1359   1357   1360
  2623   6   1173   1358   1357
  2624   7   1173   1358   1361
  2625   7   1173   1358   1362
  2626   8   1361   1358   1357
  2627   8   1362   1358   1357
  2628   9   1361   1358   1362
  2629   6    904   1363   1364
  2630   7    904   1363   1365
  2631   7    904   1363    646
  2632   8   1365   1363   1364
  2633   8    646   1363   1364
  2634   9   1365   1363    646
  2635   6   1095   1364   1363
  2636   8   1367   1364   1363
  2637   8   1368   1364   1363
  2638   7   1095   1364   1367
  2639   7   1095   1364   1368
  2640   9   1367   1364   1368
  2641   6    895   1369   1370
  2642   7    895   1369   1371
  2643   7    895   1369   1372
  2644   8   1371   1369   1370
  2645   8   1372   1369   1370
  2646   9   1371   1369   1372
  2647   6    967   1370   1369
  2648   8   1373   1370   1369
  2649   8   1374   1370   1369
  2650   7    967   1370   1373
  2651   7    967   1370   1374
  2652   9   1373   1370   1374
  2653   6    837   1375   1376
  2654   7    837   1375   1377
  2655   7    837   1375   1378
  2656   8   1377   1375   1376
  2657   8   1378   1375   1376
  2658   9   1377   1375   1378
  2659   6   1053   1376   1375
  2660   8   1379   1376   1375
  2661   8   1380   1376   1375
  2662   7   1053   1376   1379
  2663   7   1053   1376   1380
  2664   9   1379   1376   1380
  2665   6    813   1381   1382
  2666   7    813   1381   1383
  2667   7    813   1381   1384
  2668   8   1383   1381   1382
  2669   8   1384   1381   1382
  2670   9   1383   1381   1384
  2671   6   1029   1382   1381
  2672   8   1385   1382   1381
  2673   8   1386   1382   1381
  2674   7   1029   1382   1385
  2675   7   1029   1382   1386
  2676   9   1385   1382   1386
  2677   6    832   1387   1388
  2678   7    832   1387   1389
  2679   7    832   1387   1390
  2680   8   1389   1387   1388
  2681   8   1390   1387   1388
  2682   9   1389   1387   1390
  2683   6   1239   1388   1387
  2684   8   1391   1388   1387
  2685   8   1392   1388   1387
  2686   7   1239   1388   1391
  2687   7   1239   1388   1392
  2688   9   1391   1388   1392
  2689   6    865   1393   1394
  2690   7    865   1393    675
  2691   7    865   1393   1396
  2692   8    675   1393   1394
  2693   8   1396   1393   1394
  2694   9    675   1393   1396
  2695   6    807   1394   1393
  2696   8   1397   1394   1393
  2697   8   1398   1394   1393
  2698   7    807   1394   1397
  2699   7    807   1394   1398
  2700   9   1397   1394   1398
  2701   6    793   1399   1400
  2702   7    793   1399   1401
  2703   7    793   1399    682
  2704   8   1401   1399   1400
  2705   8    682   1399   1400
  2706   9   1401   1399    682
  2707   6    879   1400   1399
  2708   7    879   1400    683
  2709   7    879   1400   1404
  2710   8    683   1400   1399
  2711   8   1404   1400   1399
  2712   9    683   1400   1404
  2713   6    765   1405   1406
  2714   7    765   1405   1407
  2715   7    765   1405   1408
  2716   8   1407   1405   1406
  2717   8   1408   1405   1406
  2718   9   1407   1405   1408
  2719   6   1125   1406   1405
  2720   7   1125   1406   1409
  2721   7   1125   1406   1410
  2722   8   1409   1406   1405
  2723   8   1410   1406   1405
  2724   9   1409   1406   1410
  2725   6   1101   1411   1412
  2726   7   1101   1411   1413
  2727   7   1101   1411   1414
  2728   8   1413   1411   1412
  2729   8   1414   1411   1412
  2730   9   1413   1411   1414
  2731   6    741   1412   1411
  2732   8   1415   1412   1411
  2733   8   1416   1412   1411
  2734   7    741   1412   1415
  2735   7    741   1412   1416
  2736   9   1415   1412   1416
  2737   6   1167   1417   1418
  2738   7   1167   1417   1419
  2739   7   1167   1417   1420
  2740   8   1419   1417   1418
  2741   8   1420   1417   1418
  2742   9   1419   1417   1420
  2743   6    760   1418   1417
  2744   8   1421   1418   1417
  2745   8   1422   1418   1417
  2746   7    760   1418   1421
  2747   7    760   1418   1422
  2748   9   1421   1418   1422
  2749   6    721   1423   1424
  2750   7    721   1423   1425
  2751   7    721   1423   1426
  2752   8   1425   1423   1424
  2753   8   1426   1423   1424
  2754   9   1425   1423   1426
  2755   6    951   1424   1423
  2756   8   1427   1424   1423
  2757   8   1428   1424   1423
  2758   7    951   1424   1427
  2759   7    951   1424   1428
  2760   9   1427   1424   1428
  2761   6   2175   1429   1430
  2762   7   2175   1429   1431
  2763   7   2175   1429   1432
  2764   8   1431   1429   1430
  2765   8   1432   1429   1430
  2766   9   1431   1429   1432
  2767   6    937   1430   1429
  2768   7    937   1430   1433
  2769   7    937   1430   1434
  2770   8   1433   1430   1429
  2771   8   1434   1430   1429
  2772   9   1433   1430   1434
  2773   6    823   1435   1436
  2774   7    823   1435   1437
  2775   7    823   1435   1438
  2776   8   1437   1435   1436
  2777   8   1438   1435   1436
  2778   9   1437   1435   1438
  2779   6    751   1436   1435
  2780   8   1439   1436   1435
  2781   8   1440   1436   1435
  2782   7    751   1436   1439
  2783   7    751   1436   1440
  2784   9   1439   1436   1440
  2785   1   1442   1441   1446
  2786   2   1442   1441   2143
  2787   2   1446   1441   2143
  2788   1   1441   1442   1443
  2789   3   1441   1442   1447
  2790   3   1443   1442   1447
  2791   1   1442   1443   1444
  2792   3   1442   1443   1448
  2793   3   1444   1443   1448
  2794   1   1443   1444   1445
  2795   4   1443   1444   1457
  2796   4   1445   1444   1457
  2797   1   1444   1445   1446
  2798   3   1444   1445   1449
  2799   3   1446   1445   1449
  2800   1   1445   1446   1441
  2801   3   1445   1446   1450
  2802   3   1441   1446   1450
  2803   1   1452   1451   1456
  2804   3   1452   1451   1489
  2805   3   1456   1451   1489
  2806   1   1451   1452   1453
  2807   4   1451   1452   1457
  2808   4   1453   1452   1457
  2809   1   1452   1453   1454
  2810   3   1452   1453   1490
  2811   3   1454   1453   1490
  2812   1   1453   1454   1455
  2813   3   1453   1454   1491
  2814   3   1455   1454   1491
  2815   1   1454   1455   1456
  2816   2   1454   1455    709
  2817   2   1456   1455    709
  2818   1   1455   1456   1451
  2819   3   1455   1456   1492
  2820   3   1451   1456   1492
  2821   5   1444   1457   1452
  2822   5   1444   1457   1458
  2823   5   1444   1457   1469
  2824   5   1452   1457   1458
  2825   5   1452   1457   1469
  2826   5   1458   1457   1469
  2827   4   1459   1458   1457
  2828   4   1463   1458   1457
  2829   1   1459   1458   1463
  2830   1   1458   1459   2180
  2831   3   1458   1459   1493
  2832   3   2180   1459   1493
  2833   1   2179   1460   1461
  2834   3   2179   1460   2214
  2835   3   1461   1460   2214
  2836   1   1460   1461   1462
  2837   2   1460   1461   2132
  2838   2   1462   1461   2132
  2839   1   1461   1462   2183
  2840   3   1461   1462   1495
  2841   3   2183   1462   1495
  2842   1   1458   1463   2182
  2843   3   1458   1463   1496
  2844   3   2182   1463   1496
  2845   1   1465   1464   1469
  2846   3   1465   1464   1497
  2847   3   1469   1464   1497
  2848   1   1464   1465   1466
  2849   3   1464   1465   1498
  2850   3   1466   1465   1498
  2851   1   1465   1466   1467
  2852   4   1465   1466   1470
  2853   4   1467   1466   1470
  2854   1   1466   1467   1468
  2855   3   1466   1467   1499
  2856   3   1468   1467   1499
  2857   1   1467   1468   1469
  2858   3   1467   1468   1500
  2859   3   1469   1468   1500
  2860   4   1464   1469   1457
  2861   4   1468   1469   1457
  2862   1   1464   1469   1468
  2863   5   1466   1470   1474
  2864   5   1466   1470   1477
  2865   5   1466   1470   1488
  2866   5   1474   1470   1477
  2867   5   1474   1470   1488
  2868   5   1477   1470   1488
  2869   1   1472   1471   1476
  2870   2   1472   1471   2156
  2871   2   1476   1471   2156
  2872   1   1471   1472   1473
  2873   3   1471   1472   1501
  2874   3   1473   1472   1501
  2875   1   1472   1473   1474
  2876   3   1472   1473   1502
  2877   3   1474   1473   1502
  2878   4   1473   1474   1470
  2879   4   1475   1474   1470
  2880   1   1473   1474   1475
  2881   1   1474   1475   1476
  2882   3   1474   1475   1503
  2883   3   1476   1475   1503
  2884   1   1471   1476   1475
  2885   3   1471   1476   1504
  2886   3   1475   1476   1504
  2887   4   1478   1477   1470
  2888   4   1482   1477   1470
  2889   1   1478   1477   1482
  2890   1   1477   1478   1479
  2891   3   1477   1478   1505
  2892   3   1479   1478   1505
  2893   1   1478   1479   1480
  2894   3   1478   1479   1506
  2895   3   1480   1479   1506
  2896   1   1479   1480   1481
  2897   2   1479   1480   2138
  2898   2   1481   1480   2138
  2899   1   1480   1481   1482
  2900   3   1480   1481   1507
  2901   3   1482   1481   1507
  2902   1   1477   1482   1481
  2903   3   1477   1482   1508
  2904   3   1481   1482   1508
  2905   1   1484   1483   1488
  2906   3   1484   1483   1509
  2907   3   1488   1483   1509
  2908   1   1483   1484   1485
  2909   3   1483   1484   1510
  2910   3   1485   1484   1510
  2911   1   1484   1485   1486
  2912   2   1484   1485   2125
  2913   2   1486   1485   2125
  2914   1   1485   1486   1487
  2915   3   1485   1486   1511
  2916   3   1487   1486   1511
  2917   1   1486   1487   1488
  2918   3   1486   1487   1512
  2919   3   1488   1487   1512
  2920   4   1483   1488   1470
  2921   4   1487   1488   1470
  2922   1   1483   1488   1487
  2923   1   2234   1513   1518
  2924   2   2234   1513   2119
  2925   2   1518   1513   2119
  2926   1   2233   1514   1515
  2927   3   2233   1514   1519
  2928   3   1515   1514   1519
  2929   1   1514   1515   2236
  2930   3   1514   1515   1520
  2931   3   2236   1515   1520
  2932   1   2235   1516   1517
  2933   4   2235   1516   1529
  2934   4   1517   1516   1529
  2935   1   1516   1517   1518
  2936   3   1516   1517   1521
  2937   3   1518   1517   1521
  2938   1   1517   1518   1513
  2939   3   1517   1518   1522
  2940   3   1513   1518   1522
  2941   1   1524   1523   1528
  2942   3   1524   1523   1561
  2943   3   1528   1523   1561
  2944   1   1523   1524   1525
  2945   4   1523   1524   1529
  2946   4   1525   1524   1529
  2947   1   1524   1525   1526
  2948   3   1524   1525   1562
  2949   3   1526   1525   1562
  2950   1   1525   1526   1527
  2951   3   1525   1526   1563
  2952   3   1527   1526   1563
  2953   1   1526   1527   1528
  2954   2   1526   1527   2114
  2955   2   1528   1527   2114
  2956   1   1527   1528   1523
  2957   3   1527   1528   1564
  2958   3   1523   1528   1564
  2959   5   1524   1529   1516
  2960   5   1524   1529   1530
  2961   5   1524   1529   1541
  2962   5   1516   1529   1530
  2963   5   1516   1529   1541
  2964   5   1530   1529   1541
  2965   4   1531   1530   1529
  2966   4   2255   1530   1529
  2967   1   1531   1530   2255
  2968   1   1530   1531   2252
  2969   3   1530   1531   1565
  2970   3   2252   1531   1565
  2971   1   2251   1532   1533
  2972   3   2251   1532   2286
  2973   3   1533   1532   2286
  2974   1   1532   1533   1534
  2975   2   1532   1533   2101
  2976   2   1534   1533   2101
  2977   1   1533   1534   1535
  2978   3   1533   1534   1567
  2979   3   1535   1534   1567
  2980   1   2250   1535   1534
  2981   3   2250   1535   1568
  2982   3   1534   1535   1568
  2983   1   1537   1536   1541
  2984   3   1537   1536   1569
  2985   3   1541   1536   1569
  2986   1   1536   1537   1538
  2987   3   1536   1537   1570
  2988   3   1538   1537   1570
  2989   1   1537   1538   1539
  2990   4   1537   1538   1542
  2991   4   1539   1538   1542
  2992   1   1538   1539   1540
  2993   3   1538   1539   1571
  2994   3   1540   1539   1571
  2995   1   1539   1540   1541
  2996   3   1539   1540   1572
  2997   3   1541   1540   1572
  2998   4   1540   1541   1529
  2999   1   1540   1541   1536
  3000   4   1536   1541   1529
  3001   5   1538   1542   1546
  3002   5   1538   1542   1549
  3003   5   1538   1542   1560
  3004   5   1546   1542   1549
  3005   5   1546   1542   1560
  3006   5   1549   1542   1560
  3007   1   1544   1543   1548
  3008   2   1544   1543   2155
  3009   2   1548   1543   2155
  3010   1   1543   1544   1545
  3011   3   1543   1544   1573
  3012   3   1545   1544   1573
  3013   1   1544   1545   1546
  3014   3   1544   1545   1574
  3015   3   1546   1545   1574
  3016   4   1545   1546   1542
  3017   1   1545   1546   1547
  3018   4   1547   1546   1542
  3019   1   1546   1547   1548
  3020   3   1546   1547   1575
  3021   3   1548   1547   1575
  3022   1   1543   1548   1547
  3023   3   1543   1548   1576
  3024   3   1547   1548   1576
  3025   4   1550   1549   1542
  3026   4   1554   1549   1542
  3027   1   1550   1549   1554
  3028   1   1549   1550   1551
  3029   3   1549   1550   1577
  3030   3   1551   1550   1577
  3031   1   1550   1551   1552
  3032   3   1550   1551   1578
  3033   3   1552   1551   1578
  3034   1   1551   1552   1553
  3035   2   1551   1552   2107
  3036   2   1553   1552   2107
  3037   1   1552   1553   1554
  3038   3   1552   1553   1579
  3039   3   1554   1553   1579
  3040   1   1549   1554   1553
  3041   3   1549   1554   1580
  3042   3   1553   1554   1580
  3043   1   1556   1555   1560
  3044   3   1556   1555   1581
  3045   3   1560   1555   1581
  3046   1   1555   1556   1557
  3047   3   1555   1556   1582
  3048   3   1557   1556   1582
  3049   1   1556   1557   1558
  3050   2   1556   1557   2095
  3051   2   1558   1557   2095
  3052   1   1557   1558   1559
  3053   3   1557   1558   1583
  3054   3   1559   1558   1583
  3055   1   1558   1559   1560
  3056   3   1558   1559   1584
  3057   3   1560   1559   1584
  3058   4   1559   1560   1542
  3059   4   1555   1560   1542
  3060   1   1559   1560   1555
  3061   1   1586   1585   2310
  3062   2   1586   1585   2113
  3063   2   2310   1585   2113
  3064   1   1585   1586   1587
  3065   3   1585   1586   1591
  3066   3   1587   1586   1591
  3067   1   1586   1587   1588
  3068   3   1586   1587   1592
  3069   3   1588   1587   1592
  3070   1   1587   1588   2309
  3071   4   1587   1588   1601
  3072   4   2309   1588   1601
  3073   1   2308   1589   1590
  3074   3   2308   1589   1593
  3075   3   1590   1589   1593
  3076   1   1589   1590   2305
  3077   3   1589   1590   1594
  3078   3   2305   1590   1594
  3079   1   2316   1595   1600
  3080   3   2316   1595   1633
  3081   3   1600   1595   1633
  3082   1   2315   1596   1597
  3083   4   2315   1596    161
  3084   4   1597   1596    161
  3085   1   1596   1597   1598
  3086   3   1596   1597   1634
  3087   3   1598   1597   1634
  3088   1   1597   1598   1599
  3089   3   1597   1598   1635
  3090   3   1599   1598   1635
  3091   1   1598   1599   2320
  3092   2   1598   1599   2120
  3093   2   2320   1599   2120
  3094   1   2319   1600   1595
  3095   3   2319   1600   1636
  3096   3   1595   1600   1636
  3097   5   1588   1601    156
  3098   5   1588   1601   1602
  3099   5   1588   1601   2333
  3100   5    156   1601   1602
  3101   5    156   1601   2333
  3102   5   1602   1601   2333
  3103   4   1603   1602   1601
  3104   4   1607   1602   1601
  3105   1   1603   1602   1607
  3106   1   1602   1603   1604
  3107   3   1602   1603   1637
  3108   3   1604   1603   1637
  3109   1   1603   1604   1605
  3110   3   1603   1604   1638
  3111   3   1605   1604   1638
  3112   1   1604   1605   1606
  3113   2   1604   1605   2077
  3114   2   1606   1605   2077
  3115   1   1605   1606   1607
  3116   3   1605   1606   1639
  3117   3   1607   1606   1639
  3118   1   1602   1607   1606
  3119   3   1602   1607   1640
  3120   3   1606   1607   1640
  3121   1   1609   1608   1613
  3122   3   1609   1608   1641
  3123   3   1613   1608   1641
  3124   1   1608   1609   1610
  3125   3   1608   1609   1642
  3126   3   1610   1609   1642
  3127   1   1609   1610   1611
  3128   4   1609   1610   1614
  3129   4   1611   1610   1614
  3130   1   1610   1611   1612
  3131   3   1610   1611   1643
  3132   3   1612   1611   1643
  3133   1   1611   1612   1613
  3134   3   1611   1612   2364
  3135   3   1613   1612   2364
  3136   4   1608   1613   2321
  3137   1   1608   1613   1612
  3138   4   1612   1613   2321
  3139   5   1610   1614   1618
  3140   5   1610   1614   1621
  3141   5   1610   1614   1632
  3142   5   1618   1614   1621
  3143   5   1618   1614   1632
  3144   5   1621   1614   1632
  3145   1   1616   1615   1620
  3146   2   1616   1615   2089
  3147   2   1620   1615   2089
  3148   1   1615   1616   1617
  3149   3   1615   1616   1645
  3150   3   1617   1616   1645
  3151   1   1616   1617   1618
  3152   3   1616   1617   1646
  3153   3   1618   1617   1646
  3154   4   1617   1618   1614
  3155   4   1619   1618   1614
  3156   1   1617   1618   1619
  3157   1   1618   1619   1620
  3158   3   1618   1619   1647
  3159   3   1620   1619   1647
  3160   1   1619   1620   1615
  3161   3   1619   1620   1648
  3162   3   1615   1620   1648
  3163   4   1622   1621   1614
  3164   4   1626   1621   1614
  3165   1   1622   1621   1626
  3166   1   1621   1622   1623
  3167   3   1621   1622   1649
  3168   3   1623   1622   1649
  3169   1   1622   1623   1624
  3170   3   1622   1623   1650
  3171   3   1624   1623   1650
  3172   1   1623   1624   2345
  3173   2   1623   1624   2083
  3174   2   2345   1624   2083
  3175   1   2344   1625   2346
  3176   3   2344   1625   1651
  3177   3   2346   1625   1651
  3178   1   1621   1626   2345
  3179   3   1621   1626   1652
  3180   3   2345   1626   1652
  3181   1   1628   1627   1632
  3182   3   1628   1627   1653
  3183   3   1632   1627   1653
  3184   1   1627   1628   1629
  3185   3   1627   1628   1654
  3186   3   1629   1628   1654
  3187   1   1628   1629   1630
  3188   2   1628   1629   2072
  3189   2   1630   1629   2072
  3190   1   1629   1630   1631
  3191   3   1629   1630   1655
  3192   3   1631   1630   1655
  3193   1   1630   1631   1632
  3194   3   1630   1631   1656
  3195   3   1632   1631   1656
  3196   1   1631   1632   1627
  3197   4   1631   1632   1614
  3198   4   1627   1632   1614
  3199   1   1658   1657   1662
  3200   2   1658   1657   2150
  3201   2   1662   1657   2150
  3202   1   1657   1658   1659
  3203   3   1657   1658   1663
  3204   3   1659   1658   1663
  3205   1   1658   1659   1660
  3206   3   1658   1659   1664
  3207   3   1660   1659   1664
  3208   1   1659   1660   1661
  3209   4   1659   1660   1673
  3210   4   1661   1660   1673
  3211   1   1660   1661   1662
  3212   3   1660   1661   1665
  3213   3   1662   1661   1665
  3214   1   1657   1662   1661
  3215   3   1657   1662   1666
  3216   3   1661   1662   1666
  3217   1   1668   1667   1672
  3218   3   1668   1667   1705
  3219   3   1672   1667   1705
  3220   1   1667   1668   1669
  3221   4   1667   1668   1673
  3222   4   1669   1668   1673
  3223   1   1668   1669   1670
  3224   3   1668   1669   1706
  3225   3   1670   1669   1706
  3226   1   1669   1670   1671
  3227   3   1669   1670   1707
  3228   3   1671   1670   1707
  3229   1   1670   1671   1672
  3230   2   1670   1671   2144
  3231   2   1672   1671   2144
  3232   1   1671   1672   1667
  3233   3   1671   1672   1708
  3234   3   1667   1672   1708
  3235   5   1660   1673   1668
  3236   5   1660   1673   1674
  3237   5   1660   1673   1685
  3238   5   1668   1673   1674
  3239   5   1668   1673   1685
  3240   5   1674   1673   1685
  3241   4   1675   1674   1673
  3242   4   1679   1674   1673
  3243   1   1675   1674   1679
  3244   1   1674   1675   1676
  3245   3   1674   1675   1709
  3246   3   1676   1675   1709
  3247   1   1675   1676   1677
  3248   3   1675   1676    270
  3249   3   1677   1676    270
  3250   1   1676   1677   1678
  3251   2   1676   1677   2059
  3252   2   1678   1677   2059
  3253   1   1677   1678   1679
  3254   3   1677   1678   1711
  3255   3   1679   1678   1711
  3256   1   1674   1679   1678
  3257   3   1674   1679   1712
  3258   3   1678   1679   1712
  3259   1   1681   1680   2405
  3260   3   1681   1680   1713
  3261   3   2405   1680   1713
  3262   1   1680   1681   1682
  3263   3   1680   1681   1714
  3264   3   1682   1681   1714
  3265   1   1681   1682   1683
  3266   4   1681   1682   1686
  3267   4   1683   1682   1686
  3268   1   1682   1683   2404
  3269   3   1682   1683   1715
  3270   3   2404   1683   1715
  3271   1   2403   1684   1685
  3272   3   2403   1684   1716
  3273   3   1685   1684   1716
  3274   1   1684   1685   2400
  3275   4   1684   1685   1673
  3276   4   2400   1685   1673
  3277   5   1682   1686   1690
  3278   5   1682   1686   1693
  3279   5   1682   1686   1704
  3280   5   1690   1686   1693
  3281   5   1690   1686   1704
  3282   5   1693   1686   1704
  3283   1   1688   1687   1692
  3284   2   1688   1687   2090
  3285   2   1692   1687   2090
  3286   1   1687   1688   1689
  3287   3   1687   1688   1717
  3288   3   1689   1688   1717
  3289   1   1688   1689   1690
  3290   3   1688   1689   1718
  3291   3   1690   1689   1718
  3292   4   1689   1690   1686
  3293   1   1689   1690   1691
  3294   4   1691   1690   1686
  3295   1   1690   1691   1692
  3296   3   1690   1691   1719
  3297   3   1692   1691   1719
  3298   1   1687   1692   1691
  3299   3   1687   1692   1720
  3300   3   1691   1692   1720
  3301   4   1694   1693   1686
  3302   4   1698   1693   1686
  3303   1   1694   1693   1698
  3304   1   1693   1694   1695
  3305   3   1693   1694    281
  3306   3   1695   1694    281
  3307   1   1694   1695   1696
  3308   3   1694   1695    282
  3309   3   1696   1695    282
  3310   1   1695   1696   1697
  3311   2   1695   1696   2065
  3312   2   1697   1696   2065
  3313   1   1696   1697   1698
  3314   3   1696   1697   1723
  3315   3   1698   1697   1723
  3316   1   1697   1698   1693
  3317   3   1697   1698   1724
  3318   3   1693   1698   1724
  3319   1   1700   1699   1704
  3320   3   1700   1699   1725
  3321   3   1704   1699   1725
  3322   1   1699   1700    261
  3323   3   1699   1700   1726
  3324   3    261   1700   1726
  3325   1    260   1701   1702
  3326   2    260   1701   2053
  3327   2   1702   1701   2053
  3328   1   1701   1702    263
  3329   3   1701   1702   1727
  3330   3    263   1702   1727
  3331   1    262   1703   1704
  3332   3    262   1703   1728
  3333   3   1704   1703   1728
  3334   1   1703   1704   1699
  3335   4   1703   1704   1686
  3336   4   1699   1704   1686
  3337   1   1730   1729   1734
  3338   2   1730   1729   2767
  3339   2   1734   1729   2767
  3340   1   1729   1730   1731
  3341   3   1729   1730   2455
  3342   3   1731   1730   2455
  3343   1   1730   1731   1732
  3344   3   1730   1731   1736
  3345   3   1732   1731   1736
  3346   1   1731   1732   1733
  3347   4   1731   1732   1745
  3348   4   1733   1732   1745
  3349   1   1732   1733   1734
  3350   3   1732   1733   1737
  3351   3   1734   1733   1737
  3352   1   1733   1734   1729
  3353   3   1733   1734   1738
  3354   3   1729   1734   1738
  3355   1   1740   1739   1744
  3356   3   1740   1739   1777
  3357   3   1744   1739   1777
  3358   1   1739   1740   1741
  3359   4   1739   1740   1745
  3360   4   1741   1740   1745
  3361   1   1740   1741   1742
  3362   3   1740   1741   1778
  3363   3   1742   1741   1778
  3364   1   1741   1742   1743
  3365   3   1741   1742   1779
  3366   3   1743   1742   1779
  3367   1   1742   1743   1744
  3368   2   1742   1743    626
  3369   2   1744   1743    626
  3370   1   1739   1744   1743
  3371   3   1739   1744   1780
  3372   3   1743   1744   1780
  3373   5   1732   1745   1740
  3374   5   1732   1745   1746
  3375   5   1732   1745   1757
  3376   5   1740   1745   1746
  3377   5   1740   1745   1757
  3378   5   1746   1745   1757
  3379   4   1747   1746   1745
  3380   4   1751   1746   1745
  3381   1   1747   1746   1751
  3382   1   1746   1747   1748
  3383   3   1746   1747   1781
  3384   3   1748   1747   1781
  3385   1   1747   1748   1749
  3386   3   1747   1748   1782
  3387   3   1749   1748   1782
  3388   1   1748   1749   1750
  3389   2   1748   1749   2102
  3390   2   1750   1749   2102
  3391   1   1749   1750   1751
  3392   3   1749   1750   1783
  3393   3   1751   1750   1783
  3394   1   1750   1751   1746
  3395   3   1750   1751   1784
  3396   3   1746   1751   1784
  3397   1   1753   1752   1757
  3398   3   1753   1752   1785
  3399   3   1757   1752   1785
  3400   1   1752   1753   1754
  3401   3   1752   1753   1786
  3402   3   1754   1753   1786
  3403   1   1753   1754   1755
  3404   4   1753   1754   1758
  3405   4   1755   1754   1758
  3406   1   1754   1755   1756
  3407   3   1754   1755   1787
  3408   3   1756   1755   1787
  3409   1   1755   1756   1757
  3410   3   1755   1756   1788
  3411   3   1757   1756   1788
  3412   4   1752   1757   1745
  3413   1   1752   1757   1756
  3414   4   1756   1757   1745
  3415   5   1754   1758   1762
  3416   5   1754   1758   1765
  3417   5   1754   1758   1776
  3418   5   1762   1758   1765
  3419   5   1762   1758   1776
  3420   5   1765   1758   1776
  3421   1   1760   1759   1764
  3422   2   1760   1759   2042
  3423   2   1764   1759   2042
  3424   1   1759   1760   1761
  3425   3   1759   1760   1789
  3426   3   1761   1760   1789
  3427   1   1760   1761   1762
  3428   3   1760   1761   1790
  3429   3   1762   1761   1790
  3430   4   1761   1762   1758
  3431   4   1763   1762   1758
  3432   1   1761   1762   1763
  3433   1   1762   1763   1764
  3434   3   1762   1763   1791
  3435   3   1764   1763   1791
  3436   1   1763   1764   1759
  3437   3   1763   1764   1792
  3438   3   1759   1764   1792
  3439   4   1766   1765   1758
  3440   4   1770   1765   1758
  3441   1   1766   1765   1770
  3442   1   1765   1766   1767
  3443   3   1765   1766   1793
  3444   3   1767   1766   1793
  3445   1   1766   1767   1768
  3446   3   1766   1767   1794
  3447   3   1768   1767   1794
  3448   1   1767   1768   1769
  3449   2   1767   1768   2035
  3450   2   1769   1768   2035
  3451   1   1768   1769   1770
  3452   3   1768   1769   1795
  3453   3   1770   1769   1795
  3454   1   1765   1770   1769
  3455   3   1765   1770   1796
  3456   3   1769   1770   1796
  3457   1   1772   1771   1776
  3458   3   1772   1771   1797
  3459   3   1776   1771   1797
  3460   1   1771   1772   1773
  3461   3   1771   1772   1798
  3462   3   1773   1772   1798
  3463   1   1772   1773   1774
  3464   2   1772   1773   2096
  3465   2   1774   1773   2096
  3466   1   1773   1774   1775
  3467   3   1773   1774   1799
  3468   3   1775   1774   1799
  3469   1   1774   1775   1776
  3470   3   1774   1775   1800
  3471   3   1776   1775   1800
  3472   4   1775   1776   1758
  3473   1   1775   1776   1771
  3474   4   1771   1776   1758
  3475   1   1802   1801   1806
  3476   2   1802   1801   2048
  3477   2   1806   1801   2048
  3478   1   1801   1802   1803
  3479   3   1801   1802   2527
  3480   3   1803   1802   2527
  3481   1   1802   1803   1804
  3482   3   1802   1803   1808
  3483   3   1804   1803   1808
  3484   1   1803   1804   1805
  3485   4   1803   1804   1817
  3486   4   1805   1804   1817
  3487   1   1804   1805   1806
  3488   3   1804   1805   1809
  3489   3   1806   1805   1809
  3490   1   1805   1806   1801
  3491   3   1805   1806   1810
  3492   3   1801   1806   1810
  3493   1   1812   1811   1816
  3494   3   1812   1811   1849
  3495   3   1816   1811   1849
  3496   1   1811   1812   1813
  3497   4   1811   1812   1817
  3498   4   1813   1812   1817
  3499   1   1812   1813   1814
  3500   3   1812   1813   1850
  3501   3   1814   1813   1850
  3502   1   1813   1814   1815
  3503   3   1813   1814   1851
  3504   3   1815   1814   1851
  3505   1   1814   1815   1816
  3506   2   1814   1815   2084
  3507   2   1816   1815   2084
  3508   1   1811   1816   1815
  3509   3   1811   1816   1852
  3510   3   1815   1816   1852
  3511   5   1804   1817   1812
  3512   5   1804   1817   1818
  3513   5   1804   1817   1829
  3514   5   1812   1817   1818
  3515   5   1812   1817   1829
  3516   5   1818   1817   1829
  3517   4   1819   1818   1817
  3518   4   1823   1818   1817
  3519   1   1819   1818   1823
  3520   1   1818   1819   1820
  3521   3   1818   1819   1853
  3522   3   1820   1819   1853
  3523   1   1819   1820   1821
  3524   3   1819   1820   1854
  3525   3   1821   1820   1854
  3526   1   1820   1821   1822
  3527   2   1820   1821   2131
  3528   2   1822   1821   2131
  3529   1   1821   1822   1823
  3530   3   1821   1822   1855
  3531   3   1823   1822   1855
  3532   1   1822   1823   1818
  3533   3   1822   1823   1856
  3534   3   1818   1823   1856
  3535   1   1825   1824   1829
  3536   3   1825   1824   1857
  3537   3   1829   1824   1857
  3538   1   1824   1825   1826
  3539   3   1824   1825   1858
  3540   3   1826   1825   1858
  3541   1   1825   1826   1827
  3542   4   1825   1826   1830
  3543   4   1827   1826   1830
  3544   1   1826   1827   1828
  3545   3   1826   1827   1859
  3546   3   1828   1827   1859
  3547   1   1827   1828   1829
  3548   3   1827   1828   1860
  3549   3   1829   1828   1860
  3550   4   1824   1829   1817
  3551   1   1824   1829   1828
  3552   4   1828   1829   1817
  3553   5   1826   1830   1834
  3554   5   1826   1830   1837
  3555   5   1826   1830   1848
  3556   5   1834   1830   1837
  3557   5   1834   1830   1848
  3558   5   1837   1830   1848
  3559   1   1832   1831   1836
  3560   2   1832   1831   2024
  3561   2   1836   1831   2024
  3562   1   1831   1832   1833
  3563   3   1831   1832   1861
  3564   3   1833   1832   1861
  3565   1   1832   1833   1834
  3566   3   1832   1833   1862
  3567   3   1834   1833   1862
  3568   4   1833   1834   1830
  3569   1   1833   1834   1835
  3570   4   1835   1834   1830
  3571   1   1834   1835   1836
  3572   3   1834   1835   1863
  3573   3   1836   1835   1863
  3574   1   1831   1836   1835
  3575   3   1831   1836   1864
  3576   3   1835   1836   1864
  3577   4   1838   1837   1830
  3578   4   1842   1837   1830
  3579   1   1838   1837   1842
  3580   1   1837   1838   1839
  3581   3   1837   1838   1865
  3582   3   1839   1838   1865
  3583   1   1838   1839   1840
  3584   3   1838   1839   1866
  3585   3   1840   1839   1866
  3586   1   1839   1840   1841
  3587   2   1839   1840    590
  3588   2   1841   1840    590
  3589   1   1840   1841   1842
  3590   3   1840   1841   1867
  3591   3   1842   1841   1867
  3592   1   1837   1842   1841
  3593   3   1837   1842   1868
  3594   3   1841   1842   1868
  3595   1   1844   1843   1848
  3596   3   1844   1843   1869
  3597   3   1848   1843   1869
  3598   1   1843   1844   1845
  3599   3   1843   1844   1870
  3600   3   1845   1844   1870
  3601   1   1844   1845   1846
  3602   2   1844   1845   2126
  3603   2   1846   1845   2126
  3604   1   1845   1846   1847
  3605   3   1845   1846   1871
  3606   3   1847   1846   1871
  3607   1   1846   1847   1848
  3608   3   1846   1847   1872
  3609   3   1848   1847   1872
  3610   1   1847   1848   1843
  3611   4   1847   1848   1830
  3612   4   1843   1848   1830
  3613   1   1874   1873   1878
  3614   2   1874   1873   2017
  3615   2   1878   1873   2017
  3616   1   1873   1874   1875
  3617   3   1873   1874   1879
  3618   3   1875   1874   1879
  3619   1   1874   1875   1876
  3620   3   1874   1875   1880
  3621   3   1876   1875   1880
  3622   1   1875   1876   1877
  3623   4   1875   1876   1889
  3624   4   1877   1876   1889
  3625   1   1876   1877   1878
  3626   3   1876   1877   1881
  3627   3   1878   1877   1881
  3628   1   1873   1878   1877
  3629   3   1873   1878   1882
  3630   3   1877   1878   1882
  3631   1   1884   1883   1888
  3632   3   1884   1883   1921
  3633   3   1888   1883   1921
  3634   1   1883   1884   1885
  3635   4   1883   1884    449
  3636   4   1885   1884    449
  3637   1   1884   1885   1886
  3638   3   1884   1885   1922
  3639   3   1886   1885   1922
  3640   1   1885   1886   1887
  3641   3   1885   1886   1923
  3642   3   1887   1886   1923
  3643   1   1886   1887   1888
  3644   2   1886   1887   2137
  3645   2   1888   1887   2137
  3646   1   1887   1888   1883
  3647   3   1887   1888   1924
  3648   3   1883   1888   1924
  3649   5    444   1889   1876
  3650   5    444   1889    450
  3651   5    444   1889   1901
  3652   5   1876   1889    450
  3653   5   1876   1889   1901
  3654   5    450   1889   1901
  3655   4   1891   1890    449
  3656   4    455   1890    449
  3657   1   1891   1890    455
  3658   1   1890   1891   1892
  3659   3   1890   1891   1925
  3660   3   1892   1891   1925
  3661   1   1891   1892   1893
  3662   3   1891   1892   1926
  3663   3   1893   1892   1926
  3664   1   1892   1893    454
  3665   2   1892   1893   2078
  3666   2    454   1893   2078
  3667   1    453   1894   1895
  3668   3    453   1894   1927
  3669   3   1895   1894   1927
  3670   1   1894   1895    450
  3671   3   1894   1895   1928
  3672   3    450   1895   1928
  3673   1   1897   1896   1901
  3674   3   1897   1896    489
  3675   3   1901   1896    489
  3676   1   1896   1897   1898
  3677   3   1896   1897    490
  3678   3   1898   1897    490
  3679   1   1897   1898   1899
  3680   4   1897   1898   1902
  3681   4   1899   1898   1902
  3682   1   1898   1899   1900
  3683   3   1898   1899   1931
  3684   3   1900   1899   1931
  3685   1   1899   1900   1901
  3686   3   1899   1900   1932
  3687   3   1901   1900   1932
  3688   4   1900   1901   1889
  3689   1   1900   1901   1896
  3690   4   1896   1901   1889
  3691   5   1898   1902   1906
  3692   5   1898   1902   1909
  3693   5   1898   1902    480
  3694   5   1906   1902   1909
  3695   5   1906   1902    480
  3696   5   1909   1902    480
  3697   1   1904   1903   1908
  3698   2   1904   1903   2036
  3699   2   1908   1903   2036
  3700   1   1903   1904    465
  3701   3   1903   1904   1933
  3702   3    465   1904   1933
  3703   1    464   1905   1906
  3704   3    464   1905   1934
  3705   3   1906   1905   1934
  3706   4   1905   1906   1902
  3707   1   1905   1906    467
  3708   4    467   1906   1902
  3709   1    466   1907   1908
  3710   3    466   1907   1935
  3711   3   1908   1907   1935
  3712   1   1907   1908   1903
  3713   3   1907   1908   1936
  3714   3   1903   1908   1936
  3715   4   1910   1909   1902
  3716   4   1914   1909   1902
  3717   1   1910   1909   1914
  3718   1   1909   1910   1911
  3719   3   1909   1910   1937
  3720   3   1911   1910   1937
  3721   1   1910   1911   1912
  3722   3   1910   1911   1938
  3723   3   1912   1911   1938
  3724   1   1911   1912   1913
  3725   2   1911   1912   2041
  3726   2   1913   1912   2041
  3727   1   1912   1913   1914
  3728   3   1912   1913   1939
  3729   3   1914   1913   1939
  3730   1   1909   1914   1913
  3731   3   1909   1914   1940
  3732   3   1913   1914   1940
  3733   1   1916   1915   1920
  3734   3   1916   1915    501
  3735   3   1920   1915    501
  3736   1   1915   1916   1917
  3737   3   1915   1916   1942
  3738   3   1917   1916   1942
  3739   1   1916   1917   1918
  3740   2   1916   1917   2071
  3741   2   1918   1917   2071
  3742   1   1917   1918   1919
  3743   3   1917   1918   1943
  3744   3   1919   1918   1943
  3745   1   1918   1919   1920
  3746   3   1918   1919   1944
  3747   3   1920   1919   1944
  3748   1   1915   1920   1919
  3749   4   1915   1920    462
  3750   4   1919   1920    462
  3751   1   1946   1945   1950
  3752   2   1946   1945   2018
  3753   2   1950   1945   2018
  3754   1   1945   1946   1947
  3755   3   1945   1946   1951
  3756   3   1947   1946   1951
  3757   1   1946   1947   1948
  3758   3   1946   1947   1952
  3759   3   1948   1947   1952
  3760   1   1947   1948    509
  3761   4   1947   1948   1961
  3762   4    509   1948   1961
  3763   1    508   1949    510
  3764   3    508   1949   1953
  3765   3    510   1949   1953
  3766   1    509   1950   1945
  3767   3    509   1950    514
  3768   3   1945   1950    514
  3769   1   1956   1955   1960
  3770   3   1956   1955   1993
  3771   3   1960   1955   1993
  3772   1   1955   1956   1957
  3773   4   1955   1956   1961
  3774   4   1957   1956   1961
  3775   1   1956   1957   1958
  3776   3   1956   1957   1994
  3777   3   1958   1957   1994
  3778   1   1957   1958   1959
  3779   3   1957   1958   1995
  3780   3   1959   1958   1995
  3781   1   1958   1959   1960
  3782   2   1958   1959   2108
  3783   2   1960   1959   2108
  3784   1   1955   1960   1959
  3785   3   1955   1960   1996
  3786   3   1959   1960   1996
  3787   5   1948   1961   1956
  3788   5   1948   1961   1962
  3789   5   1948   1961    533
  3790   5   1956   1961   1962
  3791   5   1956   1961    533
  3792   5   1962   1961    533
  3793   4   1963   1962   1961
  3794   4   1967   1962   1961
  3795   1   1963   1962   1967
  3796   1   1962   1963   1964
  3797   3   1962   1963   1997
  3798   3   1964   1963   1997
  3799   1   1963   1964   1965
  3800   3   1963   1964   1998
  3801   3   1965   1964   1998
  3802   1   1964   1965   1966
  3803   2   1964   1965   2060
  3804   2   1966   1965   2060
  3805   1   1965   1966   1967
  3806   3   1965   1966   1999
  3807   3   1967   1966   1999
  3808   1   1966   1967   1962
  3809   3   1966   1967    560
  3810   3   1962   1967    560
  3811   1   1969   1968   1973
  3812   3   1969   1968   2001
  3813   3   1973   1968   2001
  3814   1   1968   1969   1970
  3815   3   1968   1969   2002
  3816   3   1970   1969   2002
  3817   1   1969   1970   1971
  3818   4   1969   1970   1974
  3819   4   1971   1970   1974
  3820   1   1970   1971   1972
  3821   3   1970   1971   2003
  3822   3   1972   1971   2003
  3823   1   1971   1972   1973
  3824   3   1971   1972   2004
  3825   3   1973   1972   2004
  3826   1   1968   1973   1972
  3827   4   1968   1973    521
  3828   4   1972   1973    521
  3829   5   1970   1974   1978
  3830   5   1970   1974   1981
  3831   5   1970   1974   1992
  3832   5   1978   1974   1981
  3833   5   1978   1974   1992
  3834   5   1981   1974   1992
  3835   1   1976   1975   1980
  3836   2   1976   1975   2029
  3837   2   1980   1975   2029
  3838   1   1975   1976   1977
  3839   3   1975   1976   2005
  3840   3   1977   1976   2005
  3841   1   1976   1977   1978
  3842   3   1976   1977   2006
  3843   3   1978   1977   2006
  3844   4   1977   1978   1974
  3845   4   1979   1978   1974
  3846   1   1977   1978   1979
  3847   1   1978   1979   1980
  3848   3   1978   1979   2007
  3849   3   1980   1979   2007
  3850   1   1979   1980   1975
  3851   3   1979   1980   2008
  3852   3   1975   1980   2008
  3853   4   1982   1981   1974
  3854   4   1986   1981   1974
  3855   1   1982   1981   1986
  3856   1   1981   1982   1983
  3857   3   1981   1982   2009
  3858   3   1983   1982   2009
  3859   1   1982   1983   1984
  3860   3   1982   1983   2010
  3861   3   1984   1983   2010
  3862   1   1983   1984   1985
  3863   2   1983   1984   2023
  3864   2   1985   1984   2023
  3865   1   1984   1985   1986
  3866   3   1984   1985   2011
  3867   3   1986   1985   2011
  3868   1   1985   1986   1981
  3869   3   1985   1986   2012
  3870   3   1981   1986   2012
  3871   1   1988   1987   1992
  3872   3   1988   1987   2013
  3873   3   1992   1987   2013
  3874   1   1987   1988   1989
  3875   3   1987   1988   2014
  3876   3   1989   1988   2014
  3877   1   1988   1989   1990
  3878   2   1988   1989    614
  3879   2   1990   1989    614
  3880   1   1989   1990   1991
  3881   3   1989   1990    575
  3882   3   1991   1990    575
  3883   1   1990   1991   1992
  3884   3   1990   1991   2016
  3885   3   1992   1991   2016
  3886   4   1987   1992   1974
  3887   1   1987   1992   1991
  3888   4   1991   1992   1974
  3889   6   1873   2017   2018
  3890   7   1873   2017   2019
  3891   7   1873   2017   2020
  3892   8   2019   2017   2018
  3893   8   2020   2017   2018
  3894   9   2019   2017   2020
  3895   6   1945   2018   2017
  3896   7   1945   2018   2021
  3897   7   1945   2018   2022
  3898   8   2021   2018   2017
  3899   8   2022   2018   2017
  3900   9   2021   2018   2022
  3901   6   1984   2023   2024
  3902   7   1984   2023   2025
  3903   7   1984   2023   2026
  3904   8   2025   2023   2024
  3905   8   2026   2023   2024
  3906   9   2025   2023   2026
  3907   6   1831   2024   2023
  3908   8   2027   2024   2023
  3909   8   2028   2024   2023
  3910   7   1831   2024   2027
  3911   7   1831   2024   2028
  3912   9   2027   2024   2028
  3913   6   1975   2029   2030
  3914   7   1975   2029   2031
  3915   7   1975   2029   2032
  3916   8   2031   2029   2030
  3917   8   2032   2029   2030
  3918   9   2031   2029   2032
  3919   6    400   2030   2029
  3920   8   2033   2030   2029
  3921   8    594   2030   2029
  3922   7    400   2030   2033
  3923   7    400   2030    594
  3924   9   2033   2030    594
  3925   6   1768   2035   2036
  3926   7   1768   2035   2037
  3927   7   1768   2035   2038
  3928   8   2037   2035   2036
  3929   8   2038   2035   2036
  3930   9   2037   2035   2038
  3931   6   1903   2036   2035
  3932   8   2039   2036   2035
  3933   8   2040   2036   2035
  3934   7   1903   2036   2039
  3935   7   1903   2036   2040
  3936   9   2039   2036   2040
  3937   6   1912   2041   2042
  3938   7   1912   2041   2043
  3939   7   1912   2041   2044
  3940   8   2043   2041   2042
  3941   8   2044   2041   2042
  3942   9   2043   2041   2044
  3943   6   1759   2042   2041
  3944   8   2045   2042   2041
  3945   8   2046   2042   2041
  3946   7   1759   2042   2045
  3947   7   1759   2042   2046
  3948   9   2045   2042   2046
  3949   6   2449   2047   2768
  3950   7   2449   2047   2049
  3951   7   2449   2047   2050
  3952   8   2049   2047   2768
  3953   8   2050   2047   2768
  3954   9   2049   2047   2050
  3955   6   1801   2048   2767
  3956   7   1801   2048   2771
  3957   7   1801   2048   2052
  3958   8   2771   2048   2767
  3959   8   2052   2048   2767
  3960   9   2771   2048   2052
  3961   6   1701   2053   2054
  3962   7   1701   2053   2055
  3963   7   1701   2053   2056
  3964   8   2055   2053   2054
  3965   8   2056   2053   2054
  3966   9   2055   2053   2056
  3967   6    549   2054   2053
  3968   7    549   2054   2057
  3969   7    549   2054    618
  3970   8   2057   2054   2053
  3971   8    618   2054   2053
  3972   9   2057   2054    618
  3973   6   1677   2059    620
  3974   7   1677   2059   2061
  3975   7   1677   2059   2062
  3976   8   2061   2059    620
  3977   8   2062   2059    620
  3978   9   2061   2059   2062
  3979   6   1965   2060    619
  3980   7   1965   2060   2063
  3981   7   1965   2060   2064
  3982   8   2063   2060    619
  3983   8   2064   2060    619
  3984   9   2063   2060   2064
  3985   6   1696   2065   2066
  3986   7   1696   2065    627
  3987   7   1696   2065   2068
  3988   8    627   2065   2066
  3989   8   2068   2065   2066
  3990   9    627   2065   2068
  3991   6    303   2066   2065
  3992   8   2069   2066   2065
  3993   8   2070   2066   2065
  3994   7    303   2066   2069
  3995   7    303   2066   2070
  3996   9   2069   2066   2070
  3997   6   1917   2071   2072
  3998   7   1917   2071   2073
  3999   7   1917   2071   2074
  4000   8   2073   2071   2072
  4001   8   2074   2071   2072
  4002   9   2073   2071   2074
  4003   6   1629   2072   2071
  4004   7   1629   2072   2075
  4005   7   1629   2072   2076
  4006   8   2075   2072   2071
  4007   8   2076   2072   2071
  4008   9   2075   2072   2076
  4009   6   1605   2077   2078
  4010   7   1605   2077   2079
  4011   7   1605   2077   2080
  4012   8   2079   2077   2078
  4013   8   2080   2077   2078
  4014   9   2079   2077   2080
  4015   6   1893   2078   2077
  4016   7   1893   2078   2081
  4017   7   1893   2078   2082
  4018   8   2081   2078   2077
  4019   8   2082   2078   2077
  4020   9   2081   2078   2082
  4021   6   1624   2083   2084
  4022   7   1624   2083   2085
  4023   7   1624   2083   2806
  4024   8   2085   2083   2084
  4025   8   2806   2083   2084
  4026   9   2085   2083   2806
  4027   6   1815   2084   2083
  4028   8   2087   2084   2083
  4029   8   2088   2084   2083
  4030   7   1815   2084   2087
  4031   7   1815   2084   2088
  4032   9   2087   2084   2088
  4033   6   1615   2089   2090
  4034   7   1615   2089   2091
  4035   7   1615   2089   2092
  4036   8   2091   2089   2090
  4037   8   2092   2089   2090
  4038   9   2091   2089   2092
  4039   6   1687   2090   2089
  4040   8   2093   2090   2089
  4041   8   2094   2090   2089
  4042   7   1687   2090   2093
  4043   7   1687   2090   2094
  4044   9   2093   2090   2094
  4045   6   1557   2095   2096
  4046   7   1557   2095   2097
  4047   7   1557   2095   2098
  4048   8   2097   2095   2096
  4049   8   2098   2095   2096
  4050   9   2097   2095   2098
  4051   6   1773   2096   2095
  4052   8   2099   2096   2095
  4053   8   2100   2096   2095
  4054   7   1773   2096   2099
  4055   7   1773   2096   2100
  4056   9   2099   2096   2100
  4057   6   1533   2101   2102
  4058   7   1533   2101   2103
  4059   7   1533   2101   2104
  4060   8   2103   2101   2102
  4061   8   2104   2101   2102
  4062   9   2103   2101   2104
  4063   6   1749   2102   2101
  4064   8   2105   2102   2101
  4065   8   2106   2102   2101
  4066   7   1749   2102   2105
  4067   7   1749   2102   2106
  4068   9   2105   2102   2106
  4069   6   1552   2107   2108
  4070   7   1552   2107   2109
  4071   7   1552   2107   2110
  4072   8   2109   2107   2108
  4073   8   2110   2107   2108
  4074   9   2109   2107   2110
  4075   6   1959   2108   2107
  4076   8   2111   2108   2107
  4077   8   2112   2108   2107
  4078   7   1959   2108   2111
  4079   7   1959   2108   2112
  4080   9   2111   2108   2112
  4081   6   1585   2113   2114
  4082   7   1585   2113   2835
  4083   7   1585   2113   2116
  4084   8   2835   2113   2114
  4085   8   2116   2113   2114
  4086   9   2835   2113   2116
  4087   6   1527   2114   2113
  4088   8   2117   2114   2113
  4089   8   2118   2114   2113
  4090   7   1527   2114   2117
  4091   7   1527   2114   2118
  4092   9   2117   2114   2118
  4093   6   1513   2119   2120
  4094   7   1513   2119   2121
  4095   7   1513   2119   2842
  4096   8   2121   2119   2120
  4097   8   2842   2119   2120
  4098   9   2121   2119   2842
  4099   6   1599   2120   2119
  4100   7   1599   2120   2843
  4101   7   1599   2120   2124
  4102   8   2843   2120   2119
  4103   8   2124   2120   2119
  4104   9   2843   2120   2124
  4105   6   1485   2125   2126
  4106   7   1485   2125   2127
  4107   7   1485   2125   2128
  4108   8   2127   2125   2126
  4109   8   2128   2125   2126
  4110   9   2127   2125   2128
  4111   6   1845   2126   2125
  4112   7   1845   2126   2129
  4113   7   1845   2126   2130
  4114   8   2129   2126   2125
  4115   8   2130   2126   2125
  4116   9   2129   2126   2130
  4117   6   1821   2131   2132
  4118   7   1821   2131   2133
  4119   7   1821   2131   2134
  4120   8   2133   2131   2132
  4121   8   2134   2131   2132
  4122   9   2133   2131   2134
  4123   6   1461   2132   2131
  4124   8   2135   2132   2131
  4125   8   2136   2132   2131
  4126   7   1461   2132   2135
  4127   7   1461   2132   2136
  4128   9   2135   2132   2136
  4129   6   1887   2137   2138
  4130   7   1887   2137   2139
  4131   7   1887   2137   2140
  4132   8   2139   2137   2138
  4133   8   2140   2137   2138
  4134   9   2139   2137   2140
  4135   6   1480   2138   2137
  4136   8   2141   2138   2137
  4137   8   2142   2138   2137
  4138   7   1480   2138   2141
  4139   7   1480   2138   2142
  4140   9   2141   2138   2142
  4141   6   1441   2143   2144
  4142   7   1441   2143   2145
  4143   7   1441   2143   2146
  4144   8   2145   2143   2144
  4145   8   2146   2143   2144
  4146   9   2145   2143   2146
  4147   6   1671   2144   2143
  4148   8   2147   2144   2143
  4149   8   2148   2144   2143
  4150   7   1671   2144   2147
  4151   7   1671   2144   2148
  4152   9   2147   2144   2148
  4153   6     15   2149   2150
  4154   7     15   2149   2151
  4155   7     15   2149   2152
  4156   8   2151   2149   2150
  4157   8   2152   2149   2150
  4158   9   2151   2149   2152
  4159   6   1657   2150   2149
  4160   7   1657   2150   2153
  4161   7   1657   2150   2154
  4162   8   2153   2150   2149
  4163   8   2154   2150   2149
  4164   9   2153   2150   2154
  4165   6   1543   2155   2156
  4166   7   1543   2155   2157
  4167   7   1543   2155   2158
  4168   8   2157   2155   2156
  4169   8   2158   2155   2156
  4170   9   2157   2155   2158
  4171   6   1471   2156   2155
  4172   8   2159   2156   2155
  4173   8   2160   2156   2155
  4174   7   1471   2156   2159
  4175   7   1471   2156   2160
  4176   9   2159   2156   2160
  4177   1   2162   2161   2166
  4178   2   2162   2161   2863
  4179   2   2166   2161   2863
  4180   1   2161   2162   2163
  4181   3   2161   2162   2167
  4182   3   2163   2162   2167
  4183   1   2162   2163   2164
  4184   3   2162   2163   2168
  4185   3   2164   2163   2168
  4186   1   2163   2164   2165
  4187   4   2163   2164   2177
  4188   4   2165   2164   2177
  4189   1   2164   2165   2166
  4190   3   2164   2165   2169
  4191   3   2166   2165   2169
  4192   1   2165   2166   2161
  4193   3   2165   2166   2170
  4194   3   2161   2166   2170
  4195   1   2172   2171   2176
  4196   3   2172   2171   2209
  4197   3   2176   2171   2209
  4198   1   2171   2172   2173
  4199   4   2171   2172   2177
  4200   4   2173   2172   2177
  4201   1   2172   2173   2174
  4202   3   2172   2173   2210
  4203   3   2174   2173   2210
  4204   1   2173   2174   2175
  4205   3   2173   2174   2211
  4206   3   2175   2174   2211
  4207   1   2174   2175   2176
  4208   2   2174   2175   1429
  4209   2   2176   2175   1429
  4210   1   2175   2176   2171
  4211   3   2175   2176   2212
  4212   3   2171   2176   2212
  4213   5   2164   2177   2172
  4214   5   2164   2177   2178
  4215   5   2164   2177   2189
  4216   5   2172   2177   2178
  4217   5   2172   2177   2189
  4218   5   2178   2177   2189
  4219   4   2179   2178   2177
  4220   4   2183   2178   2177
  4221   1   2179   2178   2183
  4222   1   2178   2179   1460
  4223   3   2178   2179   2213
  4224   3   1460   2179   2213
  4225   1   1459   2180   2181
  4226   3   1459   2180   1494
  4227   3   2181   2180   1494
  4228   1   2180   2181   2182
  4229   2   2180   2181   2852
  4230   2   2182   2181   2852
  4231   1   2181   2182   1463
  4232   3   2181   2182   2215
  4233   3   1463   2182   2215
  4234   1   2178   2183   1462
  4235   3   2178   2183   2216
  4236   3   1462   2183   2216
  4237   1   2185   2184   2189
  4238   3   2185   2184   2217
  4239   3   2189   2184   2217
  4240   1   2184   2185   2186
  4241   3   2184   2185   2218
  4242   3   2186   2185   2218
  4243   1   2185   2186   2187
  4244   4   2185   2186   2190
  4245   4   2187   2186   2190
  4246   1   2186   2187   2188
  4247   3   2186   2187   2219
  4248   3   2188   2187   2219
  4249   1   2187   2188   2189
  4250   3   2187   2188   2220
  4251   3   2189   2188   2220
  4252   4   2184   2189   2177
  4253   4   2188   2189   2177
  4254   1   2184   2189   2188
  4255   5   2186   2190   2194
  4256   5   2186   2190   2197
  4257   5   2186   2190   2208
  4258   5   2194   2190   2197
  4259   5   2194   2190   2208
  4260   5   2197   2190   2208
  4261   1   2192   2191   2196
  4262   2   2192   2191   2876
  4263   2   2196   2191   2876
  4264   1   2191   2192   2193
  4265   3   2191   2192   2221
  4266   3   2193   2192   2221
  4267   1   2192   2193   2194
  4268   3   2192   2193   2222
  4269   3   2194   2193   2222
  4270   4   2193   2194   2190
  4271   4   2195   2194   2190
  4272   1   2193   2194   2195
  4273   1   2194   2195   2196
  4274   3   2194   2195   2223
  4275   3   2196   2195   2223
  4276   1   2191   2196   2195
  4277   3   2191   2196   2224
  4278   3   2195   2196   2224
  4279   4   2198   2197   2190
  4280   4   2202   2197   2190
  4281   1   2198   2197   2202
  4282   1   2197   2198   2199
  4283   3   2197   2198   2225
  4284   3   2199   2198   2225
  4285   1   2198   2199   2200
  4286   3   2198   2199   2226
  4287   3   2200   2199   2226
  4288   1   2199   2200   2201
  4289   2   2199   2200   2858
  4290   2   2201   2200   2858
  4291   1   2200   2201   2202
  4292   3   2200   2201   2227
  4293   3   2202   2201   2227
  4294   1   2197   2202   2201
  4295   3   2197   2202   2228
  4296   3   2201   2202   2228
  4297   1   2204   2203   2208
  4298   3   2204   2203   2229
  4299   3   2208   2203   2229
  4300   1   2203   2204   2205
  4301   3   2203   2204   2230
  4302   3   2205   2204   2230
  4303   1   2204   2205   2206
  4304   2   2204   2205   2845
  4305   2   2206   2205   2845
  4306   1   2205   2206   2207
  4307   3   2205   2206   2231
  4308   3   2207   2206   2231
  4309   1   2206   2207   2208
  4310   3   2206   2207   2232
  4311   3   2208   2207   2232
  4312   4   2203   2208   2190
  4313   4   2207   2208   2190
  4314   1   2203   2208   2207
  4315   1   1514   2233   2238
  4316   2   1514   2233   2839
  4317   2   2238   2233   2839
  4318   1   1513   2234   2235
  4319   3   1513   2234   2239
  4320   3   2235   2234   2239
  4321   1   2234   2235   1516
  4322   3   2234   2235   2240
  4323   3   1516   2235   2240
  4324   1   1515   2236   2237
  4325   4   1515   2236   2249
  4326   4   2237   2236   2249
  4327   1   2236   2237   2238
  4328   3   2236   2237   2241
  4329   3   2238   2237   2241
  4330   1   2237   2238   2233
  4331   3   2237   2238   2242
  4332   3   2233   2238   2242
  4333   1   2244   2243   2248
  4334   3   2244   2243   2281
  4335   3   2248   2243   2281
  4336   1   2243   2244   2245
  4337   4   2243   2244   2249
  4338   4   2245   2244   2249
  4339   1   2244   2245   2246
  4340   3   2244   2245   2282
  4341   3   2246   2245   2282
  4342   1   2245   2246   2247
  4343   3   2245   2246   2283
  4344   3   2247   2246   2283
  4345   1   2246   2247   2248
  4346   2   2246   2247   2834
  4347   2   2248   2247   2834
  4348   1   2247   2248   2243
  4349   3   2247   2248   2284
  4350   3   2243   2248   2284
  4351   5   2244   2249   2236
  4352   5   2244   2249   2250
  4353   5   2244   2249   2261
  4354   5   2236   2249   2250
  4355   5   2236   2249   2261
  4356   5   2250   2249   2261
  4357   4   2251   2250   2249
  4358   4   1535   2250   2249
  4359   1   2251   2250   1535
  4360   1   2250   2251   1532
  4361   3   2250   2251   2285
  4362   3   1532   2251   2285
  4363   1   1531   2252   2253
  4364   3   1531   2252   1566
  4365   3   2253   2252   1566
  4366   1   2252   2253   2254
  4367   2   2252   2253   2821
  4368   2   2254   2253   2821
  4369   1   2253   2254   2255
  4370   3   2253   2254   2287
  4371   3   2255   2254   2287
  4372   1   1530   2255   2254
  4373   3   1530   2255   2288
  4374   3   2254   2255   2288
  4375   1   2257   2256   2261
  4376   3   2257   2256   2289
  4377   3   2261   2256   2289
  4378   1   2256   2257   2258
  4379   3   2256   2257   2290
  4380   3   2258   2257   2290
  4381   1   2257   2258   2259
  4382   4   2257   2258   2262
  4383   4   2259   2258   2262
  4384   1   2258   2259   2260
  4385   3   2258   2259   2291
  4386   3   2260   2259   2291
  4387   1   2259   2260   2261
  4388   3   2259   2260   2292
  4389   3   2261   2260   2292
  4390   4   2260   2261   2249
  4391   1   2260   2261   2256
  4392   4   2256   2261   2249
  4393   5   2258   2262   2266
  4394   5   2258   2262   2269
  4395   5   2258   2262   2280
  4396   5   2266   2262   2269
  4397   5   2266   2262   2280
  4398   5   2269   2262   2280
  4399   1   2264   2263   2268
  4400   2   2264   2263   2875
  4401   2   2268   2263   2875
  4402   1   2263   2264   2265
  4403   3   2263   2264   2293
  4404   3   2265   2264   2293
  4405   1   2264   2265   2266
  4406   3   2264   2265   2294
  4407   3   2266   2265   2294
  4408   4   2265   2266   2262
  4409   1   2265   2266   2267
  4410   4   2267   2266   2262
  4411   1   2266   2267   2268
  4412   3   2266   2267   2295
  4413   3   2268   2267   2295
  4414   1   2263   2268   2267
  4415   3   2263   2268   2296
  4416   3   2267   2268   2296
  4417   4   2270   2269   2262
  4418   4   2274   2269   2262
  4419   1   2270   2269   2274
  4420   1   2269   2270   2271
  4421   3   2269   2270   2297
  4422   3   2271   2270   2297
  4423   1   2270   2271   2272
  4424   3   2270   2271   2298
  4425   3   2272   2271   2298
  4426   1   2271   2272   2273
  4427   2   2271   2272   2827
  4428   2   2273   2272   2827
  4429   1   2272   2273   2274
  4430   3   2272   2273   2299
  4431   3   2274   2273   2299
  4432   1   2269   2274   2273
  4433   3   2269   2274   2300
  4434   3   2273   2274   2300
  4435   1   2276   2275   2280
  4436   3   2276   2275   2301
  4437   3   2280   2275   2301
  4438   1   2275   2276   2277
  4439   3   2275   2276   2302
  4440   3   2277   2276   2302
  4441   1   2276   2277   2278
  4442   2   2276   2277   2815
  4443   2   2278   2277   2815
  4444   1   2277   2278   2279
  4445   3   2277   2278   2303
  4446   3   2279   2278   2303
  4447   1   2278   2279   2280
  4448   3   2278   2279   2304
  4449   3   2280   2279   2304
  4450   4   2279   2280   2262
  4451   4   2275   2280   2262
  4452   1   2279   2280   2275
  4453   1   2306   2305   1590
  4454   2   2306   2305   2833
  4455   2   1590   2305   2833
  4456   1   2305   2306   2307
  4457   3   2305   2306   2311
  4458   3   2307   2306   2311
  4459   1   2306   2307   2308
  4460   3   2306   2307   2312
  4461   3   2308   2307   2312
  4462   1   2307   2308   1589
  4463   4   2307   2308   2321
  4464   4   1589   2308   2321
  4465   1   1588   2309   2310
  4466   3   1588   2309   2313
  4467   3   2310   2309   2313
  4468   1   2309   2310   1585
  4469   3   2309   2310   2314
  4470   3   1585   2310   2314
  4471   1   1596   2315   2320
  4472   3   1596   2315   2353
  4473   3   2320   2315   2353
  4474   1   1595   2316   2317
  4475   4   1595   2316    881
  4476   4   2317   2316    881
  4477   1   2316   2317   2318
  4478   3   2316   2317   2354
  4479   3   2318   2317   2354
  4480   1   2317   2318   2319
  4481   3   2317   2318   2355
  4482   3   2319   2318   2355
  4483   1   2318   2319   1600
  4484   2   2318   2319   2840
  4485   2   1600   2319   2840
  4486   1   1599   2320   2315
  4487   3   1599   2320   2356
  4488   3   2315   2320   2356
  4489   5   2308   2321    876
  4490   5   2308   2321   2322
  4491   5   2308   2321   1613
  4492   5    876   2321   2322
  4493   5    876   2321   1613
  4494   5   2322   2321   1613
  4495   4   2323   2322   2321
  4496   4   2327   2322   2321
  4497   1   2323   2322   2327
  4498   1   2322   2323   2324
  4499   3   2322   2323   2357
  4500   3   2324   2323   2357
  4501   1   2323   2324   2325
  4502   3   2323   2324   2358
  4503   3   2325   2324   2358
  4504   1   2324   2325   2326
  4505   2   2324   2325   2797
  4506   2   2326   2325   2797
  4507   1   2325   2326   2327
  4508   3   2325   2326   2359
  4509   3   2327   2326   2359
  4510   1   2322   2327   2326
  4511   3   2322   2327   2360
  4512   3   2326   2327   2360
  4513   1   2329   2328   2333
  4514   3   2329   2328   2361
  4515   3   2333   2328   2361
  4516   1   2328   2329   2330
  4517   3   2328   2329   2362
  4518   3   2330   2329   2362
  4519   1   2329   2330   2331
  4520   4   2329   2330   2334
  4521   4   2331   2330   2334
  4522   1   2330   2331   2332
  4523   3   2330   2331   2363
  4524   3   2332   2331   2363
  4525   1   2331   2332   2333
  4526   3   2331   2332   1644
  4527   3   2333   2332   1644
  4528   4   2328   2333   1601
  4529   1   2328   2333   2332
  4530   4   2332   2333   1601
  4531   5   2330   2334   2338
  4532   5   2330   2334   2341
  4533   5   2330   2334   2352
  4534   5   2338   2334   2341
  4535   5   2338   2334   2352
  4536   5   2341   2334   2352
  4537   1   2336   2335   2340
  4538   2   2336   2335   2809
  4539   2   2340   2335   2809
  4540   1   2335   2336   2337
  4541   3   2335   2336   2365
  4542   3   2337   2336   2365
  4543   1   2336   2337   2338
  4544   3   2336   2337   2366
  4545   3   2338   2337   2366
  4546   4   2337   2338   2334
  4547   4   2339   2338   2334
  4548   1   2337   2338   2339
  4549   1   2338   2339   2340
  4550   3   2338   2339   2367
  4551   3   2340   2339   2367
  4552   1   2339   2340   2335
  4553   3   2339   2340   2368
  4554   3   2335   2340   2368
  4555   4   2342   2341   2334
  4556   4   2346   2341   2334
  4557   1   2342   2341   2346
  4558   1   2341   2342   2343
  4559   3   2341   2342   2369
  4560   3   2343   2342   2369
  4561   1   2342   2343   2344
  4562   3   2342   2343   2370
  4563   3   2344   2343   2370
  4564   1   2343   2344   1625
  4565   2   2343   2344   2803
  4566   2   1625   2344   2803
  4567   1   1624   2345   1626
  4568   3   1624   2345   2371
  4569   3   1626   2345   2371
  4570   1   2341   2346   1625
  4571   3   2341   2346   2372
  4572   3   1625   2346   2372
  4573   1   2348   2347   2352
  4574   3   2348   2347   2373
  4575   3   2352   2347   2373
  4576   1   2347   2348   2349
  4577   3   2347   2348   2374
  4578   3   2349   2348   2374
  4579   1   2348   2349   2350
  4580   2   2348   2349   2792
  4581   2   2350   2349   2792
  4582   1   2349   2350   2351
  4583   3   2349   2350   2375
  4584   3   2351   2350   2375
  4585   1   2350   2351   2352
  4586   3   2350   2351   2376
  4587   3   2352   2351   2376
  4588   1   2351   2352   2347
  4589   4   2351   2352   2334
  4590   4   2347   2352   2334
  4591   1   2378   2377   2382
  4592   2   2378   2377   2870
  4593   2   2382   2377   2870
  4594   1   2377   2378   2379
  4595   3   2377   2378   2383
  4596   3   2379   2378   2383
  4597   1   2378   2379   2380
  4598   3   2378   2379   2384
  4599   3   2380   2379   2384
  4600   1   2379   2380   2381
  4601   4   2379   2380   2393
  4602   4   2381   2380   2393
  4603   1   2380   2381   2382
  4604   3   2380   2381   2385
  4605   3   2382   2381   2385
  4606   1   2377   2382   2381
  4607   3   2377   2382   2386
  4608   3   2381   2382   2386
  4609   1   2388   2387   2392
  4610   3   2388   2387   2425
  4611   3   2392   2387   2425
  4612   1   2387   2388   2389
  4613   4   2387   2388   2393
  4614   4   2389   2388   2393
  4615   1   2388   2389   2390
  4616   3   2388   2389   2426
  4617   3   2390   2389   2426
  4618   1   2389   2390   2391
  4619   3   2389   2390   2427
  4620   3   2391   2390   2427
  4621   1   2390   2391   2392
  4622   2   2390   2391   2864
  4623   2   2392   2391   2864
  4624   1   2391   2392   2387
  4625   3   2391   2392   2428
  4626   3   2387   2392   2428
  4627   5   2380   2393   2388
  4628   5   2380   2393   2394
  4629   5   2380   2393   2405
  4630   5   2388   2393   2394
  4631   5   2388   2393   2405
  4632   5   2394   2393   2405
  4633   4   2395   2394   2393
  4634   4   2399   2394   2393
  4635   1   2395   2394   2399
  4636   1   2394   2395   2396
  4637   3   2394   2395   2429
  4638   3   2396   2395   2429
  4639   1   2395   2396   2397
  4640   3   2395   2396    990
  4641   3   2397   2396    990
  4642   1   2396   2397   2398
  4643   2   2396   2397   2779
  4644   2   2398   2397   2779
  4645   1   2397   2398   2399
  4646   3   2397   2398   2431
  4647   3   2399   2398   2431
  4648   1   2394   2399   2398
  4649   3   2394   2399   2432
  4650   3   2398   2399   2432
  4651   1   2401   2400   1685
  4652   3   2401   2400   2433
  4653   3   1685   2400   2433
  4654   1   2400   2401   2402
  4655   3   2400   2401   2434
  4656   3   2402   2401   2434
  4657   1   2401   2402   2403
  4658   4   2401   2402   2406
  4659   4   2403   2402   2406
  4660   1   2402   2403   1684
  4661   3   2402   2403   2435
  4662   3   1684   2403   2435
  4663   1   1683   2404   2405
  4664   3   1683   2404   2436
  4665   3   2405   2404   2436
  4666   1   2404   2405   1680
  4667   4   2404   2405   2393
  4668   4   1680   2405   2393
  4669   5   2402   2406   2410
  4670   5   2402   2406   2413
  4671   5   2402   2406   2424
  4672   5   2410   2406   2413
  4673   5   2410   2406   2424
  4674   5   2413   2406   2424
  4675   1   2408   2407   2412
  4676   2   2408   2407   2810
  4677   2   2412   2407   2810
  4678   1   2407   2408   2409
  4679   3   2407   2408   2437
  4680   3   2409   2408   2437
  4681   1   2408   2409   2410
  4682   3   2408   2409   2438
  4683   3   2410   2409   2438
  4684   4   2409   2410   2406
  4685   1   2409   2410   2411
  4686   4   2411   2410   2406
  4687   1   2410   2411   2412
  4688   3   2410   2411   2439
  4689   3   2412   2411   2439
  4690   1   2407   2412   2411
  4691   3   2407   2412   2440
  4692   3   2411   2412   2440
  4693   4   2414   2413   2406
  4694   4   2418   2413   2406
  4695   1   2414   2413   2418
  4696   1   2413   2414   2415
  4697   3   2413   2414   1001
  4698   3   2415   2414   1001
  4699   1   2414   2415   2416
  4700   3   2414   2415   1002
  4701   3   2416   2415   1002
  4702   1   2415   2416   2417
  4703   2   2415   2416   2785
  4704   2   2417   2416   2785
  4705   1   2416   2417   2418
  4706   3   2416   2417   2443
  4707   3   2418   2417   2443
  4708   1   2417   2418   2413
  4709   3   2417   2418   2444
  4710   3   2413   2418   2444
  4711   1   2420   2419   2424
  4712   3   2420   2419   2445
  4713   3   2424   2419   2445
  4714   1   2419   2420    981
  4715   3   2419   2420   2446
  4716   3    981   2420   2446
  4717   1    980   2421   2422
  4718   2    980   2421   2773
  4719   2   2422   2421   2773
  4720   1   2421   2422    983
  4721   3   2421   2422   2447
  4722   3    983   2422   2447
  4723   1    982   2423   2424
  4724   3    982   2423   2448
  4725   3   2424   2423   2448
  4726   1   2423   2424   2419
  4727   4   2423   2424   2406
  4728   4   2419   2424   2406
  4729   1   2450   2449   2454
  4730   2   2450   2449   2047
  4731   2   2454   2449   2047
  4732   1   2449   2450   2451
  4733   3   2449   2450   1735
  4734   3   2451   2450   1735
  4735   1   2450   2451   2452
  4736   3   2450   2451   2456
  4737   3   2452   2451   2456
  4738   1   2451   2452   2453
  4739   4   2451   2452   2465
  4740   4   2453   2452   2465
  4741   1   2452   2453   2454
  4742   3   2452   2453   2457
  4743   3   2454   2453   2457
  4744   1   2453   2454   2449
  4745   3   2453   2454   2458
  4746   3   2449   2454   2458
  4747   1   2460   2459   2464
  4748   3   2460   2459   2497
  4749   3   2464   2459   2497
  4750   1   2459   2460   2461
  4751   4   2459   2460   2465
  4752   4   2461   2460   2465
  4753   1   2460   2461   2462
  4754   3   2460   2461   2498
  4755   3   2462   2461   2498
  4756   1   2461   2462   2463
  4757   3   2461   2462   2499
  4758   3   2463   2462   2499
  4759   1   2462   2463   2464
  4760   2   2462   2463   1346
  4761   2   2464   2463   1346
  4762   1   2459   2464   2463
  4763   3   2459   2464   2500
  4764   3   2463   2464   2500
  4765   5   2452   2465   2460
  4766   5   2452   2465   2466
  4767   5   2452   2465   2477
  4768   5   2460   2465   2466
  4769   5   2460   2465   2477
  4770   5   2466   2465   2477
  4771   4   2467   2466   2465
  4772   4   2471   2466   2465
  4773   1   2467   2466   2471
  4774   1   2466   2467   2468
  4775   3   2466   2467   2501
  4776   3   2468   2467   2501
  4777   1   2467   2468   2469
  4778   3   2467   2468   2502
  4779   3   2469   2468   2502
  4780   1   2468   2469   2470
  4781   2   2468   2469   2822
  4782   2   2470   2469   2822
  4783   1   2469   2470   2471
  4784   3   2469   2470   2503
  4785   3   2471   2470   2503
  4786   1   2470   2471   2466
  4787   3   2470   2471   2504
  4788   3   2466   2471   2504
  4789   1   2473   2472   2477
  4790   3   2473   2472   2505
  4791   3   2477   2472   2505
  4792   1   2472   2473   2474
  4793   3   2472   2473   2506
  4794   3   2474   2473   2506
  4795   1   2473   2474   2475
  4796   4   2473   2474   2478
  4797   4   2475   2474   2478
  4798   1   2474   2475   2476
  4799   3   2474   2475   2507
  4800   3   2476   2475   2507
  4801   1   2475   2476   2477
  4802   3   2475   2476   2508
  4803   3   2477   2476   2508
  4804   4   2472   2477   2465
  4805   1   2472   2477   2476
  4806   4   2476   2477   2465
  4807   5   2474   2478   2482
  4808   5   2474   2478   2485
  4809   5   2474   2478   2496
  4810   5   2482   2478   2485
  4811   5   2482   2478   2496
  4812   5   2485   2478   2496
  4813   1   2480   2479   2484
  4814   2   2480   2479   2762
  4815   2   2484   2479   2762
  4816   1   2479   2480   2481
  4817   3   2479   2480   2509
  4818   3   2481   2480   2509
  4819   1   2480   2481   2482
  4820   3   2480   2481   2510
  4821   3   2482   2481   2510
  4822   4   2481   2482   2478
  4823   4   2483   2482   2478
  4824   1   2481   2482   2483
  4825   1   2482   2483   2484
  4826   3   2482   2483   2511
  4827   3   2484   2483   2511
  4828   1   2483   2484   2479
  4829   3   2483   2484   2512
  4830   3   2479   2484   2512
  4831   4   2486   2485   2478
  4832   4   2490   2485   2478
  4833   1   2486   2485   2490
  4834   1   2485   2486   2487
  4835   3   2485   2486   2513
  4836   3   2487   2486   2513
  4837   1   2486   2487   2488
  4838   3   2486   2487   2514
  4839   3   2488   2487   2514
  4840   1   2487   2488   2489
  4841   2   2487   2488   2755
  4842   2   2489   2488   2755
  4843   1   2488   2489   2490
  4844   3   2488   2489   2515
  4845   3   2490   2489   2515
  4846   1   2485   2490   2489
  4847   3   2485   2490   2516
  4848   3   2489   2490   2516
  4849   1   2492   2491   2496
  4850   3   2492   2491   2517
  4851   3   2496   2491   2517
  4852   1   2491   2492   2493
  4853   3   2491   2492   2518
  4854   3   2493   2492   2518
  4855   1   2492   2493   2494
  4856   2   2492   2493   2816
  4857   2   2494   2493   2816
  4858   1   2493   2494   2495
  4859   3   2493   2494   2519
  4860   3   2495   2494   2519
  4861   1   2494   2495   2496
  4862   3   2494   2495   2520
  4863   3   2496   2495   2520
  4864   4   2495   2496   2478
  4865   1   2495   2496   2491
  4866   4   2491   2496   2478
  4867   1   2522   2521   2526
  4868   2   2522   2521   2768
  4869   2   2526   2521   2768
  4870   1   2521   2522   2523
  4871   3   2521   2522   1807
  4872   3   2523   2522   1807
  4873   1   2522   2523   2524
  4874   3   2522   2523   2528
  4875   3   2524   2523   2528
  4876   1   2523   2524   2525
  4877   4   2523   2524   2537
  4878   4   2525   2524   2537
  4879   1   2524   2525   2526
  4880   3   2524   2525   2529
  4881   3   2526   2525   2529
  4882   1   2525   2526   2521
  4883   3   2525   2526   2530
  4884   3   2521   2526   2530
  4885   1   2532   2531   2536
  4886   3   2532   2531   2569
  4887   3   2536   2531   2569
  4888   1   2531   2532   2533
  4889   4   2531   2532   2537
  4890   4   2533   2532   2537
  4891   1   2532   2533   2534
  4892   3   2532   2533   2570
  4893   3   2534   2533   2570
  4894   1   2533   2534   2535
  4895   3   2533   2534   2571
  4896   3   2535   2534   2571
  4897   1   2534   2535   2536
  4898   2   2534   2535   2804
  4899   2   2536   2535   2804
  4900   1   2531   2536   2535
  4901   3   2531   2536   2572
  4902   3   2535   2536   2572
  4903   5   2524   2537   2532
  4904   5   2524   2537   2538
  4905   5   2524   2537   2549
  4906   5   2532   2537   2538
  4907   5   2532   2537   2549
  4908   5   2538   2537   2549
  4909   4   2539   2538   2537
  4910   4   2543   2538   2537
  4911   1   2539   2538   2543
  4912   1   2538   2539   2540
  4913   3   2538   2539   2573
  4914   3   2540   2539   2573
  4915   1   2539   2540   2541
  4916   3   2539   2540   2574
  4917   3   2541   2540   2574
  4918   1   2540   2541   2542
  4919   2   2540   2541   2851
  4920   2   2542   2541   2851
  4921   1   2541   2542   2543
  4922   3   2541   2542   2575
  4923   3   2543   2542   2575
  4924   1   2542   2543   2538
  4925   3   2542   2543   2576
  4926   3   2538   2543   2576
  4927   1   2545   2544   2549
  4928   3   2545   2544   2577
  4929   3   2549   2544   2577
  4930   1   2544   2545   2546
  4931   3   2544   2545   2578
  4932   3   2546   2545   2578
  4933   1   2545   2546   2547
  4934   4   2545   2546   2550
  4935   4   2547   2546   2550
  4936   1   2546   2547   2548
  4937   3   2546   2547   2579
  4938   3   2548   2547   2579
  4939   1   2547   2548   2549
  4940   3   2547   2548   2580
  4941   3   2549   2548   2580
  4942   4   2544   2549   2537
  4943   1   2544   2549   2548
  4944   4   2548   2549   2537
  4945   5   2546   2550   2554
  4946   5   2546   2550   2557
  4947   5   2546   2550   2568
  4948   5   2554   2550   2557
  4949   5   2554   2550   2568
  4950   5   2557   2550   2568
  4951   1   2552   2551   2556
  4952   2   2552   2551   2744
  4953   2   2556   2551   2744
  4954   1   2551   2552   2553
  4955   3   2551   2552   2581
  4956   3   2553   2552   2581
  4957   1   2552   2553   2554
  4958   3   2552   2553   2582
  4959   3   2554   2553   2582
  4960   4   2553   2554   2550
  4961   1   2553   2554   2555
  4962   4   2555   2554   2550
  4963   1   2554   2555   2556
  4964   3   2554   2555   2583
  4965   3   2556   2555   2583
  4966   1   2551   2556   2555
  4967   3   2551   2556   2584
  4968   3   2555   2556   2584
  4969   4   2558   2557   2550
  4970   4   2562   2557   2550
  4971   1   2558   2557   2562
  4972   1   2557   2558   2559
  4973   3   2557   2558   2585
  4974   3   2559   2558   2585
  4975   1   2558   2559   2560
  4976   3   2558   2559   2586
  4977   3   2560   2559   2586
  4978   1   2559   2560   2561
  4979   2   2559   2560   1310
  4980   2   2561   2560   1310
  4981   1   2560   2561   2562
  4982   3   2560   2561   2587
  4983   3   2562   2561   2587
  4984   1   2557   2562   2561
  4985   3   2557   2562   2588
  4986   3   2561   2562   2588
  4987   1   2564   2563   2568
  4988   3   2564   2563   2589
  4989   3   2568   2563   2589
  4990   1   2563   2564   2565
  4991   3   2563   2564   2590
  4992   3   2565   2564   2590
  4993   1   2564   2565   2566
  4994   2   2564   2565   2846
  4995   2   2566   2565   2846
  4996   1   2565   2566   2567
  4997   3   2565   2566   2591
  4998   3   2567   2566   2591
  4999   1   2566   2567   2568
  5000   3   2566   2567   2592
  5001   3   2568   2567   2592
  5002   1   2567   2568   2563
  5003   4   2567   2568   2550
  5004   4   2563   2568   2550
  5005   1   2594   2593   2598
  5006   2   2594   2593   2737
  5007   2   2598   2593   2737
  5008   1   2593   2594   2595
  5009   3   2593   2594   2599
  5010   3   2595   2594   2599
  5011   1   2594   2595   2596
  5012   3   2594   2595   2600
  5013   3   2596   2595   2600
  5014   1   2595   2596   2597
  5015   4   2595   2596   2609
  5016   4   2597   2596   2609
  5017   1   2596   2597   2598
  5018   3   2596   2597   2601
  5019   3   2598   2597   2601
  5020   1   2593   2598   2597
  5021   3   2593   2598   2602
  5022   3   2597   2598   2602
  5023   1   2604   2603   2608
  5024   3   2604   2603   2641
  5025   3   2608   2603   2641
  5026   1   2603   2604   2605
  5027   4   2603   2604   1169
  5028   4   2605   2604   1169
  5029   1   2604   2605   2606
  5030   3   2604   2605   2642
  5031   3   2606   2605   2642
  5032   1   2605   2606   2607
  5033   3   2605   2606   2643
  5034   3   2607   2606   2643
  5035   1   2606   2607   2608
  5036   2   2606   2607   2857
  5037   2   2608   2607   2857
  5038   1   2607   2608   2603
  5039   3   2607   2608   2644
  5040   3   2603   2608   2644
  5041   5   1164   2609   2596
  5042   5   1164   2609   1170
  5043   5   1164   2609   2621
  5044   5   2596   2609   1170
  5045   5   2596   2609   2621
  5046   5   1170   2609   2621
  5047   4   2611   2610   1169
  5048   4   1175   2610   1169
  5049   1   2611   2610   1175
  5050   1   2610   2611   2612
  5051   3   2610   2611   2645
  5052   3   2612   2611   2645
  5053   1   2611   2612   2613
  5054   3   2611   2612   2646
  5055   3   2613   2612   2646
  5056   1   2612   2613   1174
  5057   2   2612   2613   2798
  5058   2   1174   2613   2798
  5059   1   1173   2614   2615
  5060   3   1173   2614   2647
  5061   3   2615   2614   2647
  5062   1   2614   2615   1170
  5063   3   2614   2615   2648
  5064   3   1170   2615   2648
  5065   1   2617   2616   2621
  5066   3   2617   2616   1209
  5067   3   2621   2616   1209
  5068   1   2616   2617   2618
  5069   3   2616   2617   1210
  5070   3   2618   2617   1210
  5071   1   2617   2618   2619
  5072   4   2617   2618   2622
  5073   4   2619   2618   2622
  5074   1   2618   2619   2620
  5075   3   2618   2619   2651
  5076   3   2620   2619   2651
  5077   1   2619   2620   2621
  5078   3   2619   2620   2652
  5079   3   2621   2620   2652
  5080   4   2620   2621   2609
  5081   1   2620   2621   2616
  5082   4   2616   2621   2609
  5083   5   2618   2622   2626
  5084   5   2618   2622   2629
  5085   5   2618   2622   1200
  5086   5   2626   2622   2629
  5087   5   2626   2622   1200
  5088   5   2629   2622   1200
  5089   1   2624   2623   2628
  5090   2   2624   2623   2756
  5091   2   2628   2623   2756
  5092   1   2623   2624   1185
  5093   3   2623   2624   2653
  5094   3   1185   2624   2653
  5095   1   1184   2625   2626
  5096   3   1184   2625   2654
  5097   3   2626   2625   2654
  5098   4   2625   2626   2622
  5099   1   2625   2626   1187
  5100   4   1187   2626   2622
  5101   1   1186   2627   2628
  5102   3   1186   2627   2655
  5103   3   2628   2627   2655
  5104   1   2627   2628   2623
  5105   3   2627   2628   2656
  5106   3   2623   2628   2656
  5107   4   2630   2629   2622
  5108   4   2634   2629   2622
  5109   1   2630   2629   2634
  5110   1   2629   2630   2631
  5111   3   2629   2630   2657
  5112   3   2631   2630   2657
  5113   1   2630   2631   2632
  5114   3   2630   2631   2658
  5115   3   2632   2631   2658
  5116   1   2631   2632   2633
  5117   2   2631   2632   2761
  5118   2   2633   2632   2761
  5119   1   2632   2633   2634
  5120   3   2632   2633   2659
  5121   3   2634   2633   2659
  5122   1   2629   2634   2633
  5123   3   2629   2634   2660
  5124   3   2633   2634   2660
  5125   1   2636   2635   2640
  5126   3   2636   2635   1221
  5127   3   2640   2635   1221
  5128   1   2635   2636   2637
  5129   3   2635   2636   2662
  5130   3   2637   2636   2662
  5131   1   2636   2637   2638
  5132   2   2636   2637   2791
  5133   2   2638   2637   2791
  5134   1   2637   2638   2639
  5135   3   2637   2638   2663
  5136   3   2639   2638   2663
  5137   1   2638   2639   2640
  5138   3   2638   2639   2664
  5139   3   2640   2639   2664
  5140   1   2635   2640   2639
  5141   4   2635   2640   1182
  5142   4   2639   2640   1182
  5143   1   2666   2665   2670
  5144   2   2666   2665   2738
  5145   2   2670   2665   2738
  5146   1   2665   2666   2667
  5147   3   2665   2666   2671
  5148   3   2667   2666   2671
  5149   1   2666   2667   2668
  5150   3   2666   2667   2672
  5151   3   2668   2667   2672
  5152   1   2667   2668   1229
  5153   4   2667   2668   2681
  5154   4   1229   2668   2681
  5155   1   1228   2669   1230
  5156   3   1228   2669   2673
  5157   3   1230   2669   2673
  5158   1   1229   2670   2665
  5159   3   1229   2670   1234
  5160   3   2665   2670   1234
  5161   1   2676   2675   2680
  5162   3   2676   2675   2713
  5163   3   2680   2675   2713
  5164   1   2675   2676   2677
  5165   4   2675   2676   2681
  5166   4   2677   2676   2681
  5167   1   2676   2677   2678
  5168   3   2676   2677   2714
  5169   3   2678   2677   2714
  5170   1   2677   2678   2679
  5171   3   2677   2678   2715
  5172   3   2679   2678   2715
  5173   1   2678   2679   2680
  5174   2   2678   2679   2828
  5175   2   2680   2679   2828
  5176   1   2675   2680   2679
  5177   3   2675   2680   2716
  5178   3   2679   2680   2716
  5179   5   2668   2681   2676
  5180   5   2668   2681   2682
  5181   5   2668   2681   1253
  5182   5   2676   2681   2682
  5183   5   2676   2681   1253
  5184   5   2682   2681   1253
  5185   4   2683   2682   2681
  5186   4   2687   2682   2681
  5187   1   2683   2682   2687
  5188   1   2682   2683   2684
  5189   3   2682   2683   2717
  5190   3   2684   2683   2717
  5191   1   2683   2684   2685
  5192   3   2683   2684   2718
  5193   3   2685   2684   2718
  5194   1   2684   2685   2686
  5195   2   2684   2685   2780
  5196   2   2686   2685   2780
  5197   1   2685   2686   2687
  5198   3   2685   2686   2719
  5199   3   2687   2686   2719
  5200   1   2686   2687   2682
  5201   3   2686   2687   1280
  5202   3   2682   2687   1280
  5203   1   2689   2688   2693
  5204   3   2689   2688   2721
  5205   3   2693   2688   2721
  5206   1   2688   2689   2690
  5207   3   2688   2689   2722
  5208   3   2690   2689   2722
  5209   1   2689   2690   2691
  5210   4   2689   2690   2694
  5211   4   2691   2690   2694
  5212   1   2690   2691   2692
  5213   3   2690   2691   2723
  5214   3   2692   2691   2723
  5215   1   2691   2692   2693
  5216   3   2691   2692   2724
  5217   3   2693   2692   2724
  5218   1   2688   2693   2692
  5219   4   2688   2693   1241
  5220   4   2692   2693   1241
  5221   5   2690   2694   2698
  5222   5   2690   2694   2701
  5223   5   2690   2694   2712
  5224   5   2698   2694   2701
  5225   5   2698   2694   2712
  5226   5   2701   2694   2712
  5227   1   2696   2695   2700
  5228   2   2696   2695   2749
  5229   2   2700   2695   2749
  5230   1   2695   2696   2697
  5231   3   2695   2696   2725
  5232   3   2697   2696   2725
  5233   1   2696   2697   2698
  5234   3   2696   2697   2726
  5235   3   2698   2697   2726
  5236   4   2697   2698   2694
  5237   4   2699   2698   2694
  5238   1   2697   2698   2699
  5239   1   2698   2699   2700
  5240   3   2698   2699   2727
  5241   3   2700   2699   2727
  5242   1   2699   2700   2695
  5243   3   2699   2700   2728
  5244   3   2695   2700   2728
  5245   4   2702   2701   2694
  5246   4   2706   2701   2694
  5247   1   2702   2701   2706
  5248   1   2701   2702   2703
  5249   3   2701   2702   2729
  5250   3   2703   2702   2729
  5251   1   2702   2703   2704
  5252   3   2702   2703   2730
  5253   3   2704   2703   2730
  5254   1   2703   2704   2705
  5255   2   2703   2704   2743
  5256   2   2705   2704   2743
  5257   1   2704   2705   2706
  5258   3   2704   2705   2731
  5259   3   2706   2705   2731
  5260   1   2705   2706   2701
  5261   3   2705   2706   2732
  5262   3   2701   2706   2732
  5263   1   2708   2707   2712
  5264   3   2708   2707   2733
  5265   3   2712   2707   2733
  5266   1   2707   2708   2709
  5267   3   2707   2708   2734
  5268   3   2709   2708   2734
  5269   1   2708   2709   2710
  5270   2   2708   2709   1334
  5271   2   2710   2709   1334
  5272   1   2709   2710   2711
  5273   3   2709   2710   1295
  5274   3   2711   2710   1295
  5275   1   2710   2711   2712
  5276   3   2710   2711   2736
  5277   3   2712   2711   2736
  5278   4   2707   2712   2694
  5279   1   2707   2712   2711
  5280   4   2711   2712   2694
  5281   6   2593   2737   2738
  5282   7   2593   2737   2739
  5283   7   2593   2737   2740
  5284   8   2739   2737   2738
  5285   8   2740   2737   2738
  5286   9   2739   2737   2740
  5287   6   2665   2738   2737
  5288   7   2665   2738   2741
  5289   7   2665   2738   2742
  5290   8   2741   2738   2737
  5291   8   2742   2738   2737
  5292   9   2741   2738   2742
  5293   6   2704   2743   2744
  5294   7   2704   2743   2745
  5295   7   2704   2743   2746
  5296   8   2745   2743   2744
  5297   8   2746   2743   2744
  5298   9   2745   2743   2746
  5299   6   2551   2744   2743
  5300   8   2747   2744   2743
  5301   8   2748   2744   2743
  5302   7   2551   2744   2747
  5303   7   2551   2744   2748
  5304   9   2747   2744   2748
  5305   6   2695   2749   2750
  5306   7   2695   2749   2751
  5307   7   2695   2749   2752
  5308   8   2751   2749   2750
  5309   8   2752   2749   2750
  5310   9   2751   2749   2752
  5311   6   1120   2750   2749
  5312   8   2753   2750   2749
  5313   8   1314   2750   2749
  5314   7   1120   2750   2753
  5315   7   1120   2750   1314
  5316   9   2753   2750   1314
  5317   6   2488   2755   2756
  5318   7   2488   2755   2757
  5319   7   2488   2755   2758
  5320   8   2757   2755   2756
  5321   8   2758   2755   2756
  5322   9   2757   2755   2758
  5323   6   2623   2756   2755
  5324   8   2759   2756   2755
  5325   8   2760   2756   2755
  5326   7   2623   2756   2759
  5327   7   2623   2756   2760
  5328   9   2759   2756   2760
  5329   6   2632   2761   2762
  5330   7   2632   2761   2763
  5331   7   2632   2761   2764
  5332   8   2763   2761   2762
  5333   8   2764   2761   2762
  5334   9   2763   2761   2764
  5335   6   2479   2762   2761
  5336   8   2765   2762   2761
  5337   8   2766   2762   2761
  5338   7   2479   2762   2765
  5339   7   2479   2762   2766
  5340   9   2765   2762   2766
  5341   6   1729   2767   2048
  5342   7   1729   2767   2769
  5343   7   1729   2767   2770
  5344   8   2769   2767   2048
  5345   8   2770   2767   2048
  5346   9   2769   2767   2770
  5347   6   2521   2768   2047
  5348   7   2521   2768   2051
  5349   7   2521   2768   2772
  5350   8   2051   2768   2047
  5351   8   2772   2768   2047
  5352   9   2051   2768   2772
  5353   6   2421   2773   2774
  5354   7   2421   2773   2775
  5355   7   2421   2773   2776
  5356   8   2775   2773   2774
  5357   8   2776   2773   2774
  5358   9   2775   2773   2776
  5359   6   1269   2774   2773
  5360   7   1269   2774   2777
  5361   7   1269   2774   1338
  5362   8   2777   2774   2773
  5363   8   1338   2774   2773
  5364   9   2777   2774   1338
  5365   6   2397   2779   1340
  5366   7   2397   2779   2781
  5367   7   2397   2779   2782
  5368   8   2781   2779   1340
  5369   8   2782   2779   1340
  5370   9   2781   2779   2782
  5371   6   2685   2780   1339
  5372   7   2685   2780   2783
  5373   7   2685   2780   2784
  5374   8   2783   2780   1339
  5375   8   2784   2780   1339
  5376   9   2783   2780   2784
  5377   6   2416   2785   2786
  5378   7   2416   2785   1347
  5379   7   2416   2785   2788
  5380   8   1347   2785   2786
  5381   8   2788   2785   2786
  5382   9   1347   2785   2788
  5383   6   1023   2786   2785
  5384   8   2789   2786   2785
  5385   8   2790   2786   2785
  5386   7   1023   2786   2789
  5387   7   1023   2786   2790
  5388   9   2789   2786   2790
  5389   6   2637   2791   2792
  5390   7   2637   2791   2793
  5391   7   2637   2791   2794
  5392   8   2793   2791   2792
  5393   8   2794   2791   2792
  5394   9   2793   2791   2794
  5395   6   2349   2792   2791
  5396   7   2349   2792   2795
  5397   7   2349   2792   2796
  5398   8   2795   2792   2791
  5399   8   2796   2792   2791
  5400   9   2795   2792   2796
  5401   6   2325   2797   2798
  5402   7   2325   2797   2799
  5403   7   2325   2797   2800
  5404   8   2799   2797   2798
  5405   8   2800   2797   2798
  5406   9   2799   2797   2800
  5407   6   2613   2798   2797
  5408   7   2613   2798   2801
  5409   7   2613   2798   2802
  5410   8   2801   2798   2797
  5411   8   2802   2798   2797
  5412   9   2801   2798   2802
  5413   6   2344   2803   2804
  5414   7   2344   2803   2805
  5415   7   2344   2803   2086
  5416   8   2805   2803   2804
  5417   8   2086   2803   2804
  5418   9   2805   2803   2086
  5419   6   2535   2804   2803
  5420   8   2807   2804   2803
  5421   8   2808   2804   2803
  5422   7   2535   2804   2807
  5423   7   2535   2804   2808
  5424   9   2807   2804   2808
  5425   6   2335   2809   2810
  5426   7   2335   2809   2811
  5427   7   2335   2809   2812
  5428   8   2811   2809   2810
  5429   8   2812   2809   2810
  5430   9   2811   2809   2812
  5431   6   2407   2810   2809
  5432   8   2813   2810   2809
  5433   8   2814   2810   2809
  5434   7   2407   2810   2813
  5435   7   2407   2810   2814
  5436   9   2813   2810   2814
  5437   6   2277   2815   2816
  5438   7   2277   2815   2817
  5439   7   2277   2815   2818
  5440   8   2817   2815   2816
  5441   8   2818   2815   2816
  5442   9   2817   2815   2818
  5443   6   2493   2816   2815
  5444   8   2819   2816   2815
  5445   8   2820   2816   2815
  5446   7   2493   2816   2819
  5447   7   2493   2816   2820
  5448   9   2819   2816   2820
  5449   6   2253   2821   2822
  5450   7   2253   2821   2823
  5451   7   2253   2821   2824
  5452   8   2823   2821   2822
  5453   8   2824   2821   2822
  5454   9   2823   2821   2824
  5455   6   2469   2822   2821
  5456   8   2825   2822   2821
  5457   8   2826   2822   2821
  5458   7   2469   2822   2825
  5459   7   2469   2822   2826
  5460   9   2825   2822   2826
  5461   6   2272   2827   2828
  5462   7   2272   2827   2829
  5463   7   2272   2827   2830
  5464   8   2829   2827   2828
  5465   8   2830   2827   2828
  5466   9   2829   2827   2830
  5467   6   2679   2828   2827
  5468   8   2831   2828   2827
  5469   8   2832   2828   2827
  5470   7   2679   2828   2831
  5471   7   2679   2828   2832
  5472   9   2831   2828   2832
  5473   6   2305   2833   2834
  5474   7   2305   2833   2115
  5475   7   2305   2833   2836
  5476   8   2115   2833   2834
  5477   8   2836   2833   2834
  5478   9   2115   2833   2836
  5479   6   2247   2834   2833
  5480   8   2837   2834   2833
  5481   8   2838   2834   2833
  5482   7   2247   2834   2837
  5483   7   2247   2834   2838
  5484   9   2837   2834   2838
  5485   6   2233   2839   2840
  5486   7   2233   2839   2841
  5487   7   2233   2839   2122
  5488   8   2841   2839   2840
  5489   8   2122   2839   2840
  5490   9   2841   2839   2122
  5491   6   2319   2840   2839
  5492   7   2319   2840   2123
  5493   7   2319   2840   2844
  5494   8   2123   2840   2839
  5495   8   2844   2840   2839
  5496   9   2123   2840   2844
  5497   6   2205   2845   2846
  5498   7   2205   2845   2847
  5499   7   2205   2845   2848
  5500   8   2847   2845   2846
  5501   8   2848   2845   2846
  5502   9   2847   2845   2848
  5503   6   2565   2846   2845
  5504   7   2565   2846   2849
  5505   7   2565   2846   2850
  5506   8   2849   2846   2845
  5507   8   2850   2846   2845
  5508   9   2849   2846   2850
  5509   6   2541   2851   2852
  5510   7   2541   2851   2853
  5511   7   2541   2851   2854
  5512   8   2853   2851   2852
  5513   8   2854   2851   2852
  5514   9   2853   2851   2854
  5515   6   2181   2852   2851
  5516   8   2855   2852   2851
  5517   8   2856   2852   2851
  5518   7   2181   2852   2855
  5519   7   2181   2852   2856
  5520   9   2855   2852   2856
  5521   6   2607   2857   2858
  5522   7   2607   2857   2859
  5523   7   2607   2857   2860
  5524   8   2859   2857   2858
  5525   8   2860   2857   2858
  5526   9   2859   2857   2860
  5527   6   2200   2858   2857
  5528   8   2861   2858   2857
  5529   8   2862   2858   2857
  5530   7   2200   2858   2861
  5531   7   2200   2858   2862
  5532   9   2861   2858   2862
  5533   6   2161   2863   2864
  5534   7   2161   2863   2865
  5535   7   2161   2863   2866
  5536   8   2865   2863   2864
  5537   8   2866   2863   2864
  5538   9   2865   2863   2866
  5539   6   2391   2864   2863
  5540   8   2867   2864   2863
  5541   8   2868   2864   2863
  5542   7   2391   2864   2867
  5543   7   2391   2864   2868
  5544   9   2867   2864   2868
  5545   6    735   2869   2870
  5546   7    735   2869   2871
  5547   7    735   2869   2872
  5548   8   2871   2869   2870
  5549   8   2872   2869   2870
  5550   9   2871   2869   2872
  5551   6   2377   2870   2869
  5552   7   2377   2870   2873
  5553   7   2377   2870   2874
  5554   8   2873   2870   2869
  5555   8   2874   2870   2869
  5556   9   2873   2870   2874
  5557   6   2263   2875   2876
  5558   7   2263   2875   2877
  5559   7   2263   2875   2878
  5560   8   2877   2875   2876
  5561   8   2878   2875   2876
  5562   9   2877   2875   2878
  5563   6   2191   2876   2875
  5564   8   2879   2876   2875
  5565   8   2880   2876   2875
  5566   7   2191   2876   2879
  5567   7   2191   2876   2880
  5568   9   2879   2876   2880

Dihedrals

     1   1      6      1      2      3
     2   2      6      1      2      7
     3   3      3      2      1    703
     4   4      7      2      1    703
     5   1      2      1      6      5
     6   2      2      1      6     10
     7   3      5      6      1    703
     8   4     10      6      1    703
     9   5      2      1    703    704
    10   6      2      1    703    705
    11   6      2      1    703    706
    12   5      6      1    703    704
    13   6      6      1    703    705
    14   6      6      1    703    706
    15   1      1      2      3      4
    16   2      1      2      3      8
    17   2      4      3      2      7
    18   7      7      2      3      8
    19   1      2      3      4      5
    20   8      2      3      4     17
    21   2      5      4      3      8
    22   9      8      3      4     17
    23   1      3      4      5      6
    24   2      3      4      5      9
    25   8      6      5      4     17
    26   9      9      5      4     17
    27  10      3      4     17     12
    28  10      3      4     17     18
    29  10      3      4     17     29
    30  10      5      4     17     12
    31  10      5      4     17     18
    32  10      5      4     17     29
    33   1      4      5      6      1
    34   2      4      5      6     10
    35   2      1      6      5      9
    36   7      9      5      6     10
    37   1     16     11     12     13
    38   8     16     11     12     17
    39   2     13     12     11     49
    40   9     49     11     12     17
    41   1     12     11     16     15
    42   2     12     11     16     52
    43   2     15     16     11     49
    44   7     49     11     16     52
    45   1     11     12     13     14
    46   2     11     12     13     50
    47   8     14     13     12     17
    48   9     50     13     12     17
    49  10     11     12     17      4
    50  10     11     12     17     18
    51  10     11     12     17     29
    52  10     13     12     17      4
    53  10     13     12     17     18
    54  10     13     12     17     29
    55   1     12     13     14     15
    56   2     12     13     14     51
    57   2     15     14     13     50
    58   7     50     13     14     51
    59   1     13     14     15     16
    60   3     13     14     15   2149
    61   2     16     15     14     51
    62   4     51     14     15   2149
    63   1     14     15     16     11
    64   2     14     15     16     52
    65   3     11     16     15   2149
    66   4     52     16     15   2149
    67   5     14     15   2149   2150
    68   6     14     15   2149   2151
    69   6     14     15   2149   2152
    70   5     16     15   2149   2150
    71   6     16     15   2149   2151
    72   6     16     15   2149   2152
    73  10     19     18     17      4
    74  10     23     18     17      4
    75  10     19     18     17     12
    76  10     23     18     17     12
    77  10     19     18     17     29
    78  10     23     18     17     29
    79  10     24     29     17      4
    80  10     28     29     17      4
    81  10     24     29     17     12
    82  10     28     29     17     12
    83  10     24     29     17     18
    84  10     28     29     17     18
    85   8    740     19     18     17
    86   9     53     19     18     17
    87   1     23     18     19    740
    88   2     23     18     19     53
    89   8    742     23     18     17
    90   9     56     23     18     17
    91   1     19     18     23    742
    92   2     19     18     23     56
    93   1     18     19    740    741
    94   2     18     19    740     54
    95   2    741    740     19     53
    96   7     53     19    740     54
    97   1     21     20    739    738
    98   2     21     20    739    773
    99   2    738    739     20    774
   100   7    774     20    739    773
   101   1    739     20     21     22
   102   3    739     20     21    692
   103   2     22     21     20    774
   104   4    774     20     21    692
   105   1     20     21     22    743
   106   2     20     21     22     55
   107   3    743     22     21    692
   108   4     55     22     21    692
   109   5     20     21    692    691
   110   6     20     21    692    695
   111   6     20     21    692    696
   112   5     22     21    692    691
   113   6     22     21    692    695
   114   6     22     21    692    696
   115   1     21     22    743    738
   116   2     21     22    743    776
   117   2    738    743     22     55
   118   7     55     22    743    776
   119   1     18     23    742    741
   120   2     18     23    742    775
   121   2    741    742     23     56
   122   7     56     23    742    775
   123   1     29     24     25     26
   124   2     29     24     25     58
   125   2     26     25     24     57
   126   7     57     24     25     58
   127   8     25     24     29     17
   128   1     25     24     29     28
   129   9     57     24     29     17
   130   2     28     29     24     57
   131   1     24     25     26     27
   132   8     24     25     26     30
   133   2     27     26     25     58
   134   9     58     25     26     30
   135   1     25     26     27     28
   136   2     25     26     27     59
   137   8     28     27     26     30
   138   9     59     27     26     30
   139  10     25     26     30     34
   140  10     25     26     30     37
   141  10     25     26     30     48
   142  10     27     26     30     34
   143  10     27     26     30     37
   144  10     27     26     30     48
   145   1     26     27     28     29
   146   2     26     27     28     60
   147   2     29     28     27     59
   148   7     59     27     28     60
   149   8     27     28     29     17
   150   1     27     28     29     24
   151   9     60     28     29     17
   152   2     24     29     28     60
   153  10     33     34     30     26
   154  10     35     34     30     26
   155  10     33     34     30     37
   156  10     35     34     30     37
   157  10     33     34     30     48
   158  10     35     34     30     48
   159  10     38     37     30     26
   160  10     42     37     30     26
   161  10     38     37     30     34
   162  10     42     37     30     34
   163  10     38     37     30     48
   164  10     42     37     30     48
   165  10     43     48     30     26
   166  10     47     48     30     26
   167  10     43     48     30     34
   168  10     47     48     30     34
   169  10     43     48     30     37
   170  10     47     48     30     37
   171   1     36     31     32     33
   172   2     36     31     32     61
   173   3     33     32     31    716
   174   4     61     32     31    716
   175   1     32     31     36     35
   176   2     32     31     36     64
   177   3     35     36     31    716
   178   4     64     36     31    716
   179   5     32     31    716    715
   180   6     32     31    716    719
   181   6     32     31    716    720
   182   5     36     31    716    715
   183   6     36     31    716    719
   184   6     36     31    716    720
   185   1     31     32     33     34
   186   2     31     32     33     62
   187   2     34     33     32     61
   188   7     61     32     33     62
   189   8     32     33     34     30
   190   1     32     33     34     35
   191   9     62     33     34     30
   192   2     35     34     33     62
   193   8     36     35     34     30
   194   9     63     35     34     30
   195   1     33     34     35     36
   196   2     33     34     35     63
   197   1     34     35     36     31
   198   2     34     35     36     64
   199   2     31     36     35     63
   200   7     63     35     36     64
   201   8     39     38     37     30
   202   9     65     38     37     30
   203   1     42     37     38     39
   204   2     42     37     38     65
   205   8     41     42     37     30
   206   9     68     42     37     30
   207   1     38     37     42     41
   208   2     38     37     42     68
   209   1     37     38     39     40
   210   2     37     38     39     66
   211   2     40     39     38     65
   212   7     65     38     39     66
   213   1     38     39     40     41
   214   3     38     39     40    698
   215   2     41     40     39     66
   216   4     66     39     40    698
   217   1     39     40     41     42
   218   2     39     40     41     67
   219   3     42     41     40    698
   220   4     67     41     40    698
   221   5     39     40    698    697
   222   6     39     40    698    701
   223   6     39     40    698    702
   224   5     41     40    698    697
   225   6     41     40    698    701
   226   6     41     40    698    702
   227   1     40     41     42     37
   228   2     40     41     42     68
   229   2     37     42     41     67
   230   7     67     41     42     68
   231   1     48     43     44     45
   232   2     48     43     44     70
   233   2     45     44     43     69
   234   7     69     43     44     70
   235   8     44     43     48     30
   236   1     44     43     48     47
   237   9     69     43     48     30
   238   2     47     48     43     69
   239   1     43     44     45     46
   240   3     43     44     45    685
   241   2     46     45     44     70
   242   4     70     44     45    685
   243   1     44     45     46     47
   244   2     44     45     46     71
   245   3     47     46     45    685
   246   4     71     46     45    685
   247   5     44     45    685    686
   248   6     44     45    685    687
   249   6     44     45    685    688
   250   5     46     45    685    686
   251   6     46     45    685    687
   252   6     46     45    685    688
   253   1     45     46     47     48
   254   2     45     46     47     72
   255   2     48     47     46     71
   256   7     71     46     47     72
   257   8     46     47     48     30
   258   1     46     47     48     43
   259   9     72     47     48     30
   260   2     43     48     47     72
   261   1     78     73    794    795
   262   2     78     73    794    799
   263   3    795    794     73    679
   264   4    799    794     73    679
   265   1    794     73     78     77
   266   2    794     73     78     82
   267   3     77     78     73    679
   268   4     82     78     73    679
   269   5    794     73    679    680
   270   6    794     73    679    681
   271   6    794     73    679   1402
   272   5     78     73    679    680
   273   6     78     73    679    681
   274   6     78     73    679   1402
   275   1     75     74    793    798
   276   3     75     74    793   1399
   277   2    798    793     74     79
   278   4     79     74    793   1399
   279   1    793     74     75    796
   280   2    793     74     75     80
   281   2    796     75     74     79
   282   7     79     74     75     80
   283   1     74     75    796    797
   284   8     74     75    796    809
   285   2    797    796     75     80
   286   9     80     75    796    809
   287   1     77     76    795    794
   288   2     77     76    795    800
   289   8    794    795     76     89
   290   9    800    795     76     89
   291   1    795     76     77     78
   292   2    795     76     77     81
   293   8     78     77     76     89
   294   9     81     77     76     89
   295  10    795     76     89     84
   296  10    795     76     89     90
   297  10    795     76     89    101
   298  10     77     76     89     84
   299  10     77     76     89     90
   300  10     77     76     89    101
   301   1     76     77     78     73
   302   2     76     77     78     82
   303   2     73     78     77     81
   304   7     81     77     78     82
   305   1     88     83     84     85
   306   8     88     83     84     89
   307   2     85     84     83    121
   308   9    121     83     84     89
   309   1     84     83     88     87
   310   2     84     83     88    124
   311   2     87     88     83    121
   312   7    121     83     88    124
   313   1     83     84     85     86
   314   2     83     84     85    122
   315   8     86     85     84     89
   316   9    122     85     84     89
   317  10     83     84     89     76
   318  10     83     84     89     90
   319  10     83     84     89    101
   320  10     85     84     89     76
   321  10     85     84     89     90
   322  10     85     84     89    101
   323   1     84     85     86     87
   324   2     84     85     86    123
   325   2     87     86     85    122
   326   7    122     85     86    123
   327   1     85     86     87     88
   328   3     85     86     87    674
   329   2     88     87     86    123
   330   4    123     86     87    674
   331   1     86     87     88     83
   332   2     86     87     88    124
   333   3     83     88     87    674
   334   4    124     88     87    674
   335   5     86     87    674    673
   336   6     86     87    674    677
   337   6     86     87    674    678
   338   5     88     87    674    673
   339   6     88     87    674    677
   340   6     88     87    674    678
   341  10     91     90     89     84
   342  10    815     90     89     84
   343  10     91     90     89     76
   344  10    815     90     89     76
   345  10     91     90     89    101
   346  10    815     90     89    101
   347  10    100    101     89     84
   348  10     96    101     89     84
   349  10    100    101     89     76
   350  10     96    101     89     76
   351  10    100    101     89     90
   352  10     96    101     89     90
   353   8    812     91     90     89
   354   9    125     91     90     89
   355   1    815     90     91    812
   356   2    815     90     91    125
   357   8    814    815     90     89
   358   9    848    815     90     89
   359   1     91     90    815    814
   360   2     91     90    815    848
   361   1     90     91    812    813
   362   2     90     91    812    126
   363   2    813    812     91    125
   364   7    125     91    812    126
   365   1     93     92    811    810
   366   2     93     92    811    845
   367   2    810    811     92    846
   368   7    846     92    811    845
   369   1    811     92     93     94
   370   3    811     92     93    661
   371   2     94     93     92    846
   372   4    846     92     93    661
   373   1     92     93     94     95
   374   2     92     93     94    127
   375   3     95     94     93    661
   376   4    127     94     93    661
   377   5     92     93    661    662
   378   6     92     93    661    663
   379   6     92     93    661    664
   380   5     94     93    661    662
   381   6     94     93    661    663
   382   6     94     93    661    664
   383   1     93     94     95    810
   384   2     93     94     95    128
   385   2    810     95     94    127
   386   7    127     94     95    128
   387   8     94     95    810    809
   388   1     94     95    810    811
   389   9    128     95    810    809
   390   2    811    810     95    128
   391   1    101     96     97     98
   392   2    101     96     97    130
   393   2     98     97     96    129
   394   7    129     96     97    130
   395   1     97     96    101    100
   396   8     97     96    101     89
   397   2    100    101     96    129
   398   9    129     96    101     89
   399   1     96     97     98     99
   400   8     96     97     98    102
   401   2     99     98     97    130
   402   9    130     97     98    102
   403   1     97     98     99    100
   404   2     97     98     99    131
   405   8    100     99     98    102
   406   9    131     99     98    102
   407  10     97     98    102    106
   408  10     97     98    102    109
   409  10     97     98    102    120
   410  10     99     98    102    106
   411  10     99     98    102    109
   412  10     99     98    102    120
   413   1     98     99    100    101
   414   2     98     99    100    132
   415   2    101    100     99    131
   416   7    131     99    100    132
   417   8     99    100    101     89
   418   1     99    100    101     96
   419   9    132    100    101     89
   420   2     96    101    100    132
   421  10    105    106    102     98
   422  10    107    106    102     98
   423  10    105    106    102    109
   424  10    107    106    102    109
   425  10    105    106    102    120
   426  10    107    106    102    120
   427  10    110    109    102     98
   428  10    114    109    102     98
   429  10    110    109    102    106
   430  10    114    109    102    106
   431  10    110    109    102    120
   432  10    114    109    102    120
   433  10    119    120    102     98
   434  10    115    120    102     98
   435  10    119    120    102    106
   436  10    115    120    102    106
   437  10    119    120    102    109
   438  10    115    120    102    109
   439   1    108    103    104    105
   440   2    108    103    104    133
   441   3    105    104    103    715
   442   4    133    104    103    715
   443   1    104    103    108    107
   444   2    104    103    108    136
   445   3    107    108    103    715
   446   4    136    108    103    715
   447   5    104    103    715    716
   448   6    104    103    715    717
   449   6    104    103    715    718
   450   5    108    103    715    716
   451   6    108    103    715    717
   452   6    108    103    715    718
   453   1    103    104    105    106
   454   2    103    104    105    134
   455   2    106    105    104    133
   456   7    133    104    105    134
   457   8    104    105    106    102
   458   1    104    105    106    107
   459   9    134    105    106    102
   460   2    107    106    105    134
   461   1    105    106    107    108
   462   2    105    106    107    135
   463   8    108    107    106    102
   464   9    135    107    106    102
   465   1    106    107    108    103
   466   2    106    107    108    136
   467   2    103    108    107    135
   468   7    135    107    108    136
   469   8    111    110    109    102
   470   9    137    110    109    102
   471   1    114    109    110    111
   472   2    114    109    110    137
   473   8    113    114    109    102
   474   9    140    114    109    102
   475   1    110    109    114    113
   476   2    110    109    114    140
   477   1    109    110    111    112
   478   2    109    110    111    138
   479   2    112    111    110    137
   480   7    137    110    111    138
   481   1    110    111    112    113
   482   3    110    111    112    667
   483   2    113    112    111    138
   484   4    138    111    112    667
   485   1    111    112    113    114
   486   2    111    112    113    139
   487   3    114    113    112    667
   488   4    139    113    112    667
   489   5    111    112    667    668
   490   6    111    112    667    669
   491   6    111    112    667    670
   492   5    113    112    667    668
   493   6    113    112    667    669
   494   6    113    112    667    670
   495   1    112    113    114    109
   496   2    112    113    114    140
   497   2    109    114    113    139
   498   7    139    113    114    140
   499   1    120    115    116    117
   500   2    120    115    116    142
   501   2    117    116    115    141
   502   7    141    115    116    142
   503   8    116    115    120    102
   504   1    116    115    120    119
   505   9    141    115    120    102
   506   2    119    120    115    141
   507   1    115    116    117    118
   508   3    115    116    117    655
   509   2    118    117    116    142
   510   4    142    116    117    655
   511   1    116    117    118    119
   512   2    116    117    118    143
   513   3    119    118    117    655
   514   4    143    118    117    655
   515   5    116    117    655    656
   516   6    116    117    655    657
   517   6    116    117    655    658
   518   5    118    117    655    656
   519   6    118    117    655    657
   520   6    118    117    655    658
   521   1    117    118    119    120
   522   2    117    118    119    144
   523   2    120    119    118    143
   524   7    143    118    119    144
   525   8    118    119    120    102
   526   1    118    119    120    115
   527   9    144    119    120    102
   528   2    115    120    119    144
   529   1    870    145    146    147
   530   2    870    145    146    151
   531   3    147    146    145    673
   532   4    151    146    145    673
   533   1    146    145    870    869
   534   2    146    145    870    874
   535   3    869    870    145    673
   536   4    874    870    145    673
   537   5    146    145    673    674
   538   6    146    145    673   1395
   539   6    146    145    673    676
   540   5    870    145    673    674
   541   6    870    145    673   1395
   542   6    870    145    673    676
   543   1    145    146    147    148
   544   2    145    146    147    152
   545   2    148    147    146    151
   546   7    151    146    147    152
   547   1    146    147    148    869
   548   8    146    147    148    161
   549   2    869    148    147    152
   550   9    152    147    148    161
   551   1    147    148    869    870
   552   2    147    148    869    873
   553   8    870    869    148    161
   554   9    873    869    148    161
   555  10    147    148    161   1596
   556  10    147    148    161    162
   557  10    147    148    161    893
   558  10    869    148    161   1596
   559  10    869    148    161    162
   560  10    869    148    161    893
   561   1    150    149    868    867
   562   8    150    149    868    881
   563   2    867    868    149    153
   564   9    153    149    868    881
   565   1    868    149    150    865
   566   2    868    149    150    154
   567   2    865    150    149    153
   568   7    153    149    150    154
   569   1    149    150    865    866
   570   3    149    150    865   1393
   571   2    866    865    150    154
   572   4    154    150    865   1393
   573   1    160    155    876    877
   574   8    160    155    876   2321
   575   2    877    876    155    193
   576   9    193    155    876   2321
   577   1    876    155    160    879
   578   2    876    155    160    196
   579   2    879    160    155    193
   580   7    193    155    160    196
   581   1    157    156    875    880
   582   2    157    156    875    913
   583   8    880    875    156   1601
   584   9    913    875    156   1601
   585   1    875    156    157    158
   586   2    875    156    157    194
   587   8    158    157    156   1601
   588   9    194    157    156   1601
   589  10    875    156   1601   1588
   590  10    875    156   1601   1602
   591  10    875    156   1601   2333
   592  10    157    156   1601   1588
   593  10    157    156   1601   1602
   594  10    157    156   1601   2333
   595   1    156    157    158    159
   596   2    156    157    158    195
   597   2    159    158    157    194
   598   7    194    157    158    195
   599   1    157    158    159    880
   600   3    157    158    159    680
   601   2    880    159    158    195
   602   4    195    158    159    680
   603   1    158    159    880    875
   604   2    158    159    880    916
   605   3    875    880    159    680
   606   4    916    880    159    680
   607   5    158    159    680    679
   608   6    158    159    680   1403
   609   6    158    159    680    684
   610   5    880    159    680    679
   611   6    880    159    680   1403
   612   6    880    159    680    684
   613   1    155    160    879    878
   614   3    155    160    879   1400
   615   2    878    879    160    196
   616   4    196    160    879   1400
   617  10   2315   1596    161    148
   618  10   1597   1596    161    148
   619  10   2315   1596    161    162
   620  10   1597   1596    161    162
   621  10   2315   1596    161    893
   622  10   1597   1596    161    893
   623  10    163    162    161    148
   624  10    167    162    161    148
   625  10    163    162    161   1596
   626  10    167    162    161   1596
   627  10    163    162    161    893
   628  10    167    162    161    893
   629  10    888    893    161    148
   630  10    892    893    161    148
   631  10    888    893    161   1596
   632  10    892    893    161   1596
   633  10    888    893    161    162
   634  10    892    893    161    162
   635   8    164    163    162    161
   636   9    197    163    162    161
   637   1    167    162    163    164
   638   2    167    162    163    197
   639   8    166    167    162    161
   640   9    200    167    162    161
   641   1    163    162    167    166
   642   2    163    162    167    200
   643   1    162    163    164    165
   644   2    162    163    164    198
   645   2    165    164    163    197
   646   7    197    163    164    198
   647   1    163    164    165    166
   648   3    163    164    165    637
   649   2    166    165    164    198
   650   4    198    164    165    637
   651   1    164    165    166    167
   652   2    164    165    166    199
   653   3    167    166    165    637
   654   4    199    166    165    637
   655   5    164    165    637    638
   656   6    164    165    637    639
   657   6    164    165    637    640
   658   5    166    165    637    638
   659   6    166    165    637    639
   660   6    166    165    637    640
   661   1    165    166    167    162
   662   2    165    166    167    200
   663   2    162    167    166    199
   664   7    199    166    167    200
   665   1    173    168    169    170
   666   2    173    168    169    202
   667   2    170    169    168    201
   668   7    201    168    169    202
   669   8    169    168    173    881
   670   1    169    168    173    172
   671   9    201    168    173    881
   672   2    172    173    168    201
   673   1    168    169    170    171
   674   8    168    169    170    174
   675   2    171    170    169    202
   676   9    202    169    170    174
   677   1    169    170    171    172
   678   2    169    170    171    203
   679   8    172    171    170    174
   680   9    203    171    170    174
   681  10    169    170    174    178
   682  10    169    170    174    181
   683  10    169    170    174    192
   684  10    171    170    174    178
   685  10    171    170    174    181
   686  10    171    170    174    192
   687   1    170    171    172    173
   688   2    170    171    172    924
   689   2    173    172    171    203
   690   7    203    171    172    924
   691   1    171    172    173    168
   692   8    171    172    173    881
   693   2    168    173    172    924
   694   9    924    172    173    881
   695  10    168    173    881    868
   696  10    168    173    881   2316
   697  10    168    173    881    882
   698  10    172    173    881    868
   699  10    172    173    881   2316
   700  10    172    173    881    882
   701  10    177    178    174    170
   702  10    179    178    174    170
   703  10    177    178    174    181
   704  10    179    178    174    181
   705  10    177    178    174    192
   706  10    179    178    174    192
   707  10    182    181    174    170
   708  10    186    181    174    170
   709  10    182    181    174    178
   710  10    186    181    174    178
   711  10    182    181    174    192
   712  10    186    181    174    192
   713  10    191    192    174    170
   714  10    187    192    174    170
   715  10    191    192    174    178
   716  10    187    192    174    178
   717  10    191    192    174    181
   718  10    187    192    174    181
   719   1    180    175    176    177
   720   2    180    175    176    205
   721   3    177    176    175    649
   722   4    205    176    175    649
   723   1    176    175    180    179
   724   2    176    175    180    208
   725   3    179    180    175    649
   726   4    208    180    175    649
   727   5    176    175    649    650
   728   6    176    175    649    651
   729   6    176    175    649    652
   730   5    180    175    649    650
   731   6    180    175    649    651
   732   6    180    175    649    652
   733   1    175    176    177    178
   734   2    175    176    177    206
   735   2    178    177    176    205
   736   7    205    176    177    206
   737   8    176    177    178    174
   738   1    176    177    178    179
   739   9    206    177    178    174
   740   2    179    178    177    206
   741   8    180    179    178    174
   742   9    207    179    178    174
   743   1    177    178    179    180
   744   2    177    178    179    207
   745   1    178    179    180    175
   746   2    178    179    180    208
   747   2    175    180    179    207
   748   7    207    179    180    208
   749   8    183    182    181    174
   750   9    209    182    181    174
   751   1    186    181    182    183
   752   2    186    181    182    209
   753   8    905    186    181    174
   754   9    212    186    181    174
   755   1    182    181    186    905
   756   2    182    181    186    212
   757   1    181    182    183    184
   758   2    181    182    183    210
   759   2    184    183    182    209
   760   7    209    182    183    210
   761   1    182    183    184    905
   762   3    182    183    184    643
   763   2    905    184    183    210
   764   4    210    183    184    643
   765   1    183    184    905    186
   766   2    183    184    905    931
   767   3    186    905    184    643
   768   4    931    905    184    643
   769   5    183    184    643    644
   770   6    183    184    643    645
   771   6    183    184    643   1366
   772   5    905    184    643    644
   773   6    905    184    643    645
   774   6    905    184    643   1366
   775   1    906    185    904    903
   776   3    906    185    904   1363
   777   2    903    904    185    211
   778   4    211    185    904   1363
   779   1    904    185    906    901
   780   2    904    185    906    932
   781   2    901    906    185    211
   782   7    211    185    906    932
   783   1    181    186    905    184
   784   2    181    186    905    931
   785   2    184    905    186    212
   786   7    212    186    905    931
   787   1    192    187    188    189
   788   2    192    187    188    214
   789   2    189    188    187    213
   790   7    213    187    188    214
   791   1    188    187    192    191
   792   8    188    187    192    174
   793   2    191    192    187    213
   794   9    213    187    192    174
   795   1    187    188    189    190
   796   3    187    188    189    632
   797   2    190    189    188    214
   798   4    214    188    189    632
   799   1    188    189    190    191
   800   2    188    189    190    215
   801   3    191    190    189    632
   802   4    215    190    189    632
   803   5    188    189    632    631
   804   6    188    189    632    635
   805   6    188    189    632    636
   806   5    190    189    632    631
   807   6    190    189    632    635
   808   6    190    189    632    636
   809   1    189    190    191    192
   810   2    189    190    191    216
   811   2    192    191    190    215
   812   7    215    190    191    216
   813   1    190    191    192    187
   814   8    190    191    192    174
   815   2    187    192    191    216
   816   9    216    191    192    174
   817   1    222    217    218    219
   818   2    222    217    218    223
   819   3    219    218    217    710
   820   4    223    218    217    710
   821   1    218    217    222    221
   822   2    218    217    222    226
   823   3    221    222    217    710
   824   4    226    222    217    710
   825   5    218    217    710    709
   826   6    218    217    710    713
   827   6    218    217    710    714
   828   5    222    217    710    709
   829   6    222    217    710    713
   830   6    222    217    710    714
   831   1    217    218    219    220
   832   2    217    218    219    224
   833   2    220    219    218    223
   834   7    223    218    219    224
   835   1    218    219    220    221
   836   8    218    219    220    233
   837   2    221    220    219    224
   838   9    224    219    220    233
   839   1    219    220    221    222
   840   2    219    220    221    225
   841   8    222    221    220    233
   842   9    225    221    220    233
   843  10    219    220    233    228
   844  10    219    220    233    234
   845  10    219    220    233    245
   846  10    221    220    233    228
   847  10    221    220    233    234
   848  10    221    220    233    245
   849   1    220    221    222    217
   850   2    220    221    222    226
   851   2    217    222    221    225
   852   7    225    221    222    226
   853   1    232    227    228    229
   854   8    232    227    228    233
   855   2    229    228    227    265
   856   9    265    227    228    233
   857   1    228    227    232    231
   858   2    228    227    232    268
   859   2    231    232    227    265
   860   7    265    227    232    268
   861   1    227    228    229    230
   862   2    227    228    229    266
   863   8    230    229    228    233
   864   9    266    229    228    233
   865  10    227    228    233    220
   866  10    227    228    233    234
   867  10    227    228    233    245
   868  10    229    228    233    220
   869  10    229    228    233    234
   870  10    229    228    233    245
   871   1    228    229    230    231
   872   2    228    229    230    267
   873   2    231    230    229    266
   874   7    266    229    230    267
   875   1    229    230    231    232
   876   3    229    230    231    704
   877   2    232    231    230    267
   878   4    267    230    231    704
   879   1    230    231    232    227
   880   2    230    231    232    268
   881   3    227    232    231    704
   882   4    268    232    231    704
   883   5    230    231    704    703
   884   6    230    231    704    707
   885   6    230    231    704    708
   886   5    232    231    704    703
   887   6    232    231    704    707
   888   6    232    231    704    708
   889  10    235    234    233    220
   890  10    239    234    233    220
   891  10    235    234    233    228
   892  10    239    234    233    228
   893  10    235    234    233    245
   894  10    239    234    233    245
   895  10    244    245    233    220
   896  10    960    245    233    220
   897  10    244    245    233    228
   898  10    960    245    233    228
   899  10    244    245    233    234
   900  10    960    245    233    234
   901   8    236    235    234    233
   902   9    269    235    234    233
   903   1    239    234    235    236
   904   2    239    234    235    269
   905   8    238    239    234    233
   906   9    272    239    234    233
   907   1    235    234    239    238
   908   2    235    234    239    272
   909   1    234    235    236    237
   910   2    234    235    236   1710
   911   2    237    236    235    269
   912   7    269    235    236   1710
   913   1    235    236    237    238
   914   3    235    236    237    619
   915   2    238    237    236   1710
   916   4   1710    236    237    619
   917   1    236    237    238    239
   918   2    236    237    238    271
   919   3    239    238    237    619
   920   4    271    238    237    619
   921   5    236    237    619   2060
   922   6    236    237    619    621
   923   6    236    237    619    622
   924   5    238    237    619   2060
   925   6    238    237    619    621
   926   6    238    237    619    622
   927   1    237    238    239    234
   928   2    237    238    239    272
   929   2    234    239    238    271
   930   7    271    238    239    272
   931   1    965    240    241    242
   932   2    965    240    241    274
   933   2    242    241    240    273
   934   7    273    240    241    274
   935   1    241    240    965    964
   936   8    241    240    965    953
   937   2    964    965    240    273
   938   9    273    240    965    953
   939   1    240    241    242    243
   940   8    240    241    242    246
   941   2    243    242    241    274
   942   9    274    241    242    246
   943   1    241    242    243    964
   944   2    241    242    243    275
   945   8    964    243    242    246
   946   9    275    243    242    246
   947  10    241    242    246    250
   948  10    241    242    246    253
   949  10    241    242    246    264
   950  10    243    242    246    250
   951  10    243    242    246    253
   952  10    243    242    246    264
   953   1    242    243    964    965
   954   2    242    243    964    996
   955   2    965    964    243    275
   956   7    275    243    964    996
   957   1    245    244    963    962
   958   2    245    244    963    995
   959   2    962    963    244    276
   960   7    276    244    963    995
   961   1    963    244    245    960
   962   8    963    244    245    233
   963   2    960    245    244    276
   964   9    276    244    245    233
   965   1    244    245    960    961
   966   2    244    245    960    993
   967   8    961    960    245    233
   968   9    993    960    245    233
   969  10    249    250    246    242
   970  10    251    250    246    242
   971  10    249    250    246    253
   972  10    251    250    246    253
   973  10    249    250    246    264
   974  10    251    250    246    264
   975  10    254    253    246    242
   976  10    258    253    246    242
   977  10    254    253    246    250
   978  10    258    253    246    250
   979  10    254    253    246    264
   980  10    258    253    246    264
   981  10    263    264    246    242
   982  10    259    264    246    242
   983  10    263    264    246    250
   984  10    259    264    246    250
   985  10    263    264    246    253
   986  10    259    264    246    253
   987   1    252    247    248    249
   988   2    252    247    248    277
   989   3    249    248    247    650
   990   4    277    248    247    650
   991   1    248    247    252    251
   992   2    248    247    252    280
   993   3    251    252    247    650
   994   4    280    252    247    650
   995   5    248    247    650    649
   996   6    248    247    650    653
   997   6    248    247    650    654
   998   5    252    247    650    649
   999   6    252    247    650    653
  1000   6    252    247    650    654
  1001   1    247    248    249    250
  1002   2    247    248    249    278
  1003   2    250    249    248    277
  1004   7    277    248    249    278
  1005   8    248    249    250    246
  1006   1    248    249    250    251
  1007   9    278    249    250    246
  1008   2    251    250    249    278
  1009   1    249    250    251    252
  1010   2    249    250    251    279
  1011   8    252    251    250    246
  1012   9    279    251    250    246
  1013   1    250    251    252    247
  1014   2    250    251    252    280
  1015   2    247    252    251    279
  1016   7    279    251    252    280
  1017   8    255    254    253    246
  1018   9   1721    254    253    246
  1019   1    258    253    254    255
  1020   2    258    253    254   1721
  1021   8    257    258    253    246
  1022   9    284    258    253    246
  1023   1    254    253    258    257
  1024   2    254    253    258    284
  1025   1    253    254    255    256
  1026   2    253    254    255   1722
  1027   2    256    255    254   1721
  1028   7   1721    254    255   1722
  1029   1    254    255    256    257
  1030   3    254    255    256    625
  1031   2    257    256    255   1722
  1032   4   1722    255    256    625
  1033   1    255    256    257    258
  1034   2    255    256    257    283
  1035   3    258    257    256    625
  1036   4    283    257    256    625
  1037   5    255    256    625    626
  1038   6    255    256    625   2067
  1039   6    255    256    625    628
  1040   5    257    256    625    626
  1041   6    257    256    625   2067
  1042   6    257    256    625    628
  1043   1    256    257    258    253
  1044   2    256    257    258    284
  1045   2    253    258    257    283
  1046   7    283    257    258    284
  1047   1    264    259    260   1701
  1048   2    264    259    260    286
  1049   2   1701    260    259    285
  1050   7    285    259    260    286
  1051   1    260    259    264    263
  1052   8    260    259    264    246
  1053   2    263    264    259    285
  1054   9    285    259    264    246
  1055   1    259    260   1701   1702
  1056   3    259    260   1701   2053
  1057   2   1702   1701    260    286
  1058   4    286    260   1701   2053
  1059   1    262    261   1700   1699
  1060   2    262    261   1700   1726
  1061   3   1699   1700    261    613
  1062   4   1726   1700    261    613
  1063   1   1700    261    262   1703
  1064   2   1700    261    262    287
  1065   3   1703    262    261    613
  1066   4    287    262    261    613
  1067   5   1700    261    613    614
  1068   6   1700    261    613    615
  1069   6   1700    261    613    616
  1070   5    262    261    613    614
  1071   6    262    261    613    615
  1072   6    262    261    613    616
  1073   1    261    262   1703   1704
  1074   2    261    262   1703   1728
  1075   2   1704   1703    262    287
  1076   7    287    262   1703   1728
  1077   1    264    263   1702   1701
  1078   2    264    263   1702   1727
  1079   2   1701   1702    263    288
  1080   7    288    263   1702   1727
  1081   1   1702    263    264    259
  1082   8   1702    263    264    246
  1083   2    259    264    263    288
  1084   9    288    263    264    246
  1085   1    294    289    290    291
  1086   2    294    289    290   1015
  1087   3    291    290    289   1327
  1088   4   1015    290    289   1327
  1089   1    290    289    294    293
  1090   2    290    289    294    298
  1091   3    293    294    289   1327
  1092   4    298    294    289   1327
  1093   5    290    289   1327    608
  1094   6    290    289   1327   1329
  1095   6    290    289   1327   1330
  1096   5    294    289   1327    608
  1097   6    294    289   1327   1329
  1098   6    294    289   1327   1330
  1099   1    289    290    291    292
  1100   2    289    290    291    296
  1101   2    292    291    290   1015
  1102   7   1015    290    291    296
  1103   1    290    291    292    293
  1104   8    290    291    292    305
  1105   2    293    292    291    296
  1106   9    296    291    292    305
  1107   1    291    292    293    294
  1108   2    291    292    293    297
  1109   8    294    293    292    305
  1110   9    297    293    292    305
  1111  10    291    292    305    300
  1112  10    291    292    305    306
  1113  10    291    292    305    317
  1114  10    293    292    305    300
  1115  10    293    292    305    306
  1116  10    293    292    305    317
  1117   1    292    293    294    289
  1118   2    292    293    294    298
  1119   2    289    294    293    297
  1120   7    297    293    294    298
  1121   1    304    299    300    301
  1122   8    304    299    300    305
  1123   2    301    300    299    337
  1124   9    337    299    300    305
  1125   1    300    299    304    303
  1126   2    300    299    304    340
  1127   2    303    304    299    337
  1128   7    337    299    304    340
  1129   1    299    300    301    302
  1130   2    299    300    301    338
  1131   8    302    301    300    305
  1132   9    338    301    300    305
  1133  10    299    300    305    292
  1134  10    299    300    305    306
  1135  10    299    300    305    317
  1136  10    301    300    305    292
  1137  10    301    300    305    306
  1138  10    301    300    305    317
  1139   1    300    301    302    303
  1140   2    300    301    302    339
  1141   2    303    302    301    338
  1142   7    338    301    302    339
  1143   1    301    302    303    304
  1144   3    301    302    303   2066
  1145   2    304    303    302    339
  1146   4    339    302    303   2066
  1147   1    302    303    304    299
  1148   2    302    303    304    340
  1149   3    299    304    303   2066
  1150   4    340    304    303   2066
  1151   5    302    303   2066   2065
  1152   6    302    303   2066   2069
  1153   6    302    303   2066   2070
  1154   5    304    303   2066   2065
  1155   6    304    303   2066   2069
  1156   6    304    303   2066   2070
  1157  10    307    306    305    292
  1158  10    311    306    305    292
  1159  10    307    306    305    300
  1160  10    311    306    305    300
  1161  10    307    306    305    317
  1162  10    311    306    305    317
  1163  10    312    317    305    292
  1164  10    316    317    305    292
  1165  10    312    317    305    300
  1166  10    316    317    305    300
  1167  10    312    317    305    306
  1168  10    316    317    305    306
  1169   8    308    307    306    305
  1170   9    341    307    306    305
  1171   1    311    306    307    308
  1172   2    311    306    307    341
  1173   8    310    311    306    305
  1174   9    344    311    306    305
  1175   1    307    306    311    310
  1176   2    307    306    311    344
  1177   1    306    307    308    309
  1178   2    306    307    308    342
  1179   2    309    308    307    341
  1180   7    341    307    308    342
  1181   1    307    308    309    310
  1182   3    307    308    309    662
  1183   2    310    309    308    342
  1184   4    342    308    309    662
  1185   1    308    309    310    311
  1186   2    308    309    310    343
  1187   3    311    310    309    662
  1188   4    343    310    309    662
  1189   5    308    309    662    661
  1190   6    308    309    662    665
  1191   6    308    309    662    666
  1192   5    310    309    662    661
  1193   6    310    309    662    665
  1194   6    310    309    662    666
  1195   1    309    310    311    306
  1196   2    309    310    311    344
  1197   2    306    311    310    343
  1198   7    343    310    311    344
  1199   1    317    312    313    314
  1200   2    317    312    313    346
  1201   2    314    313    312    345
  1202   7    345    312    313    346
  1203   8    313    312    317    305
  1204   1    313    312    317    316
  1205   9    345    312    317    305
  1206   2    316    317    312    345
  1207   1    312    313    314    315
  1208   8    312    313    314    318
  1209   2    315    314    313    346
  1210   9    346    313    314    318
  1211   1    313    314    315    316
  1212   2    313    314    315    347
  1213   8    316    315    314    318
  1214   9    347    315    314    318
  1215  10    313    314    318    322
  1216  10    313    314    318    325
  1217  10    313    314    318    336
  1218  10    315    314    318    322
  1219  10    315    314    318    325
  1220  10    315    314    318    336
  1221   1    314    315    316    317
  1222   2    314    315    316    348
  1223   2    317    316    315    347
  1224   7    347    315    316    348
  1225   1    315    316    317    312
  1226   8    315    316    317    305
  1227   2    312    317    316    348
  1228   9    348    316    317    305
  1229  10    321    322    318    314
  1230  10    323    322    318    314
  1231  10    321    322    318    325
  1232  10    323    322    318    325
  1233  10    321    322    318    336
  1234  10    323    322    318    336
  1235  10    326    325    318    314
  1236  10    330    325    318    314
  1237  10    326    325    318    322
  1238  10    330    325    318    322
  1239  10    326    325    318    336
  1240  10    330    325    318    336
  1241  10    335    336    318    314
  1242  10    331    336    318    314
  1243  10    335    336    318    322
  1244  10    331    336    318    322
  1245  10    335    336    318    325
  1246  10    331    336    318    325
  1247   1    324    319    320    321
  1248   2    324    319    320    349
  1249   3    321    320    319    602
  1250   4    349    320    319    602
  1251   1    320    319    324    323
  1252   2    320    319    324    352
  1253   3    323    324    319    602
  1254   4    352    324    319    602
  1255   5    320    319    602    601
  1256   6    320    319    602    605
  1257   6    320    319    602    606
  1258   5    324    319    602    601
  1259   6    324    319    602    605
  1260   6    324    319    602    606
  1261   1    319    320    321    322
  1262   2    319    320    321    350
  1263   2    322    321    320    349
  1264   7    349    320    321    350
  1265   8    320    321    322    318
  1266   1    320    321    322    323
  1267   9    350    321    322    318
  1268   2    323    322    321    350
  1269   8    324    323    322    318
  1270   9    351    323    322    318
  1271   1    321    322    323    324
  1272   2    321    322    323    351
  1273   1    322    323    324    319
  1274   2    322    323    324    352
  1275   2    319    324    323    351
  1276   7    351    323    324    352
  1277   8    327    326    325    318
  1278   9    353    326    325    318
  1279   1    330    325    326    327
  1280   2    330    325    326    353
  1281   8    329    330    325    318
  1282   9    356    330    325    318
  1283   1    326    325    330    329
  1284   2    326    325    330    356
  1285   1    325    326    327    328
  1286   2    325    326    327    354
  1287   2    328    327    326    353
  1288   7    353    326    327    354
  1289   1    326    327    328    329
  1290   3    326    327    328    595
  1291   2    329    328    327    354
  1292   4    354    327    328    595
  1293   1    327    328    329    330
  1294   2    327    328    329    355
  1295   3    330    329    328    595
  1296   4    355    329    328    595
  1297   5    327    328    595    596
  1298   6    327    328    595    597
  1299   6    327    328    595    598
  1300   5    329    328    595    596
  1301   6    329    328    595    597
  1302   6    329    328    595    598
  1303   1    328    329    330    325
  1304   2    328    329    330    356
  1305   2    325    330    329    355
  1306   7    355    329    330    356
  1307   1    336    331    332    333
  1308   2    336    331    332    358
  1309   2    333    332    331    357
  1310   7    357    331    332    358
  1311   1    332    331    336    335
  1312   8    332    331    336    318
  1313   2    335    336    331    357
  1314   9    357    331    336    318
  1315   1    331    332    333    334
  1316   3    331    332    333    656
  1317   2    334    333    332    358
  1318   4    358    332    333    656
  1319   1    332    333    334    335
  1320   2    332    333    334    359
  1321   3    335    334    333    656
  1322   4    359    334    333    656
  1323   5    332    333    656    655
  1324   6    332    333    656    659
  1325   6    332    333    656    660
  1326   5    334    333    656    655
  1327   6    334    333    656    659
  1328   6    334    333    656    660
  1329   1    333    334    335    336
  1330   2    333    334    335    360
  1331   2    336    335    334    359
  1332   7    359    334    335    360
  1333   8    334    335    336    318
  1334   1    334    335    336    331
  1335   9    360    335    336    318
  1336   2    331    336    335    360
  1337   1    366    361    362    363
  1338   2    366    361    362   1087
  1339   3    363    362    361    608
  1340   4   1087    362    361    608
  1341   1    362    361    366    365
  1342   2    362    361    366    370
  1343   3    365    366    361    608
  1344   4    370    366    361    608
  1345   5    362    361    608   1327
  1346   6    362    361    608   1331
  1347   6    362    361    608    612
  1348   5    366    361    608   1327
  1349   6    366    361    608   1331
  1350   6    366    361    608    612
  1351   1    361    362    363    364
  1352   2    361    362    363    368
  1353   2    364    363    362   1087
  1354   7   1087    362    363    368
  1355   1    362    363    364    365
  1356   8    362    363    364    377
  1357   2    365    364    363    368
  1358   9    368    363    364    377
  1359   1    363    364    365    366
  1360   2    363    364    365    369
  1361   8    366    365    364    377
  1362   9    369    365    364    377
  1363  10    363    364    377    372
  1364  10    363    364    377    378
  1365  10    363    364    377    389
  1366  10    365    364    377    372
  1367  10    365    364    377    378
  1368  10    365    364    377    389
  1369   1    364    365    366    361
  1370   2    364    365    366    370
  1371   2    361    366    365    369
  1372   7    369    365    366    370
  1373   1    376    371    372    373
  1374   8    376    371    372    377
  1375   2    373    372    371    409
  1376   9    409    371    372    377
  1377   1    372    371    376    375
  1378   2    372    371    376    412
  1379   2    375    376    371    409
  1380   7    409    371    376    412
  1381   1    371    372    373    374
  1382   2    371    372    373    410
  1383   8    374    373    372    377
  1384   9    410    373    372    377
  1385  10    371    372    377    364
  1386  10    371    372    377    378
  1387  10    371    372    377    389
  1388  10    373    372    377    364
  1389  10    373    372    377    378
  1390  10    373    372    377    389
  1391   1    372    373    374    375
  1392   2    372    373    374    411
  1393   2    375    374    373    410
  1394   7    410    373    374    411
  1395   1    373    374    375    376
  1396   3    373    374    375    644
  1397   2    376    375    374    411
  1398   4    411    374    375    644
  1399   1    374    375    376    371
  1400   2    374    375    376    412
  1401   3    371    376    375    644
  1402   4    412    376    375    644
  1403   5    374    375    644    643
  1404   6    374    375    644    647
  1405   6    374    375    644    648
  1406   5    376    375    644    643
  1407   6    376    375    644    647
  1408   6    376    375    644    648
  1409  10    379    378    377    364
  1410  10    383    378    377    364
  1411  10    379    378    377    372
  1412  10    383    378    377    372
  1413  10    379    378    377    389
  1414  10    383    378    377    389
  1415  10    384    389    377    364
  1416  10    388    389    377    364
  1417  10    384    389    377    372
  1418  10    388    389    377    372
  1419  10    384    389    377    378
  1420  10    388    389    377    378
  1421   8    380    379    378    377
  1422   9    413    379    378    377
  1423   1    383    378    379    380
  1424   2    383    378    379    413
  1425   8    382    383    378    377
  1426   9    416    383    378    377
  1427   1    379    378    383    382
  1428   2    379    378    383    416
  1429   1    378    379    380    381
  1430   2    378    379    380    414
  1431   2    381    380    379    413
  1432   7    413    379    380    414
  1433   1    379    380    381    382
  1434   3    379    380    381    691
  1435   2    382    381    380    414
  1436   4    414    380    381    691
  1437   1    380    381    382    383
  1438   2    380    381    382    415
  1439   3    383    382    381    691
  1440   4    415    382    381    691
  1441   5    380    381    691    692
  1442   6    380    381    691    693
  1443   6    380    381    691    694
  1444   5    382    381    691    692
  1445   6    382    381    691    693
  1446   6    382    381    691    694
  1447   1    381    382    383    378
  1448   2    381    382    383    416
  1449   2    378    383    382    415
  1450   7    415    382    383    416
  1451   1    389    384    385    386
  1452   2    389    384    385    418
  1453   2    386    385    384    417
  1454   7    417    384    385    418
  1455   8    385    384    389    377
  1456   1    385    384    389    388
  1457   9    417    384    389    377
  1458   2    388    389    384    417
  1459   1    384    385    386    387
  1460   8    384    385    386    390
  1461   2    387    386    385    418
  1462   9    418    385    386    390
  1463   1    385    386    387    388
  1464   2    385    386    387    419
  1465   8    388    387    386    390
  1466   9    419    387    386    390
  1467  10    385    386    390    394
  1468  10    385    386    390    397
  1469  10    385    386    390    408
  1470  10    387    386    390    394
  1471  10    387    386    390    397
  1472  10    387    386    390    408
  1473   1    386    387    388    389
  1474   2    386    387    388    420
  1475   2    389    388    387    419
  1476   7    419    387    388    420
  1477   1    387    388    389    384
  1478   8    387    388    389    377
  1479   2    384    389    388    420
  1480   9    420    388    389    377
  1481  10    393    394    390    386
  1482  10    395    394    390    386
  1483  10    393    394    390    397
  1484  10    395    394    390    397
  1485  10    393    394    390    408
  1486  10    395    394    390    408
  1487  10    398    397    390    386
  1488  10    402    397    390    386
  1489  10    398    397    390    394
  1490  10    402    397    390    394
  1491  10    398    397    390    408
  1492  10    402    397    390    408
  1493  10    407    408    390    386
  1494  10    403    408    390    386
  1495  10    407    408    390    394
  1496  10    403    408    390    394
  1497  10    407    408    390    397
  1498  10    403    408    390    397
  1499   1    396    391    392    393
  1500   2    396    391    392    421
  1501   3    393    392    391    584
  1502   4    421    392    391    584
  1503   1    392    391    396    395
  1504   2    392    391    396    424
  1505   3    395    396    391    584
  1506   4    424    396    391    584
  1507   5    392    391    584    583
  1508   6    392    391    584    587
  1509   6    392    391    584    588
  1510   5    396    391    584    583
  1511   6    396    391    584    587
  1512   6    396    391    584    588
  1513   1    391    392    393    394
  1514   2    391    392    393    422
  1515   2    394    393    392    421
  1516   7    421    392    393    422
  1517   8    392    393    394    390
  1518   1    392    393    394    395
  1519   9    422    393    394    390
  1520   2    395    394    393    422
  1521   1    393    394    395    396
  1522   2    393    394    395    423
  1523   8    396    395    394    390
  1524   9    423    395    394    390
  1525   1    394    395    396    391
  1526   2    394    395    396    424
  1527   2    391    396    395    423
  1528   7    423    395    396    424
  1529   8    399    398    397    390
  1530   9    425    398    397    390
  1531   1    402    397    398    399
  1532   2    402    397    398    425
  1533   8    401    402    397    390
  1534   9    428    402    397    390
  1535   1    398    397    402    401
  1536   2    398    397    402    428
  1537   1    397    398    399    400
  1538   2    397    398    399    426
  1539   2    400    399    398    425
  1540   7    425    398    399    426
  1541   1    398    399    400    401
  1542   3    398    399    400   2030
  1543   2    401    400    399    426
  1544   4    426    399    400   2030
  1545   1    399    400    401    402
  1546   2    399    400    401    427
  1547   3    402    401    400   2030
  1548   4    427    401    400   2030
  1549   5    399    400   2030   2029
  1550   6    399    400   2030   2033
  1551   6    399    400   2030    594
  1552   5    401    400   2030   2029
  1553   6    401    400   2030   2033
  1554   6    401    400   2030    594
  1555   1    400    401    402    397
  1556   2    400    401    402    428
  1557   2    397    402    401    427
  1558   7    427    401    402    428
  1559   1    408    403    404    405
  1560   2    408    403    404    430
  1561   2    405    404    403    429
  1562   7    429    403    404    430
  1563   1    404    403    408    407
  1564   8    404    403    408    390
  1565   2    407    408    403    429
  1566   9    429    403    408    390
  1567   1    403    404    405    406
  1568   3    403    404    405    686
  1569   2    406    405    404    430
  1570   4    430    404    405    686
  1571   1    404    405    406    407
  1572   2    404    405    406    431
  1573   3    407    406    405    686
  1574   4    431    406    405    686
  1575   5    404    405    686    685
  1576   6    404    405    686    689
  1577   6    404    405    686    690
  1578   5    406    405    686    685
  1579   6    406    405    686    689
  1580   6    406    405    686    690
  1581   1    405    406    407    408
  1582   2    405    406    407    432
  1583   2    408    407    406    431
  1584   7    431    406    407    432
  1585   1    406    407    408    403
  1586   8    406    407    408    390
  1587   2    403    408    407    432
  1588   9    432    407    408    390
  1589   1    438    433    434    435
  1590   2    438    433    434    439
  1591   3    435    434    433    577
  1592   4    439    434    433    577
  1593   1    434    433    438    437
  1594   2    434    433    438    442
  1595   3    437    438    433    577
  1596   4    442    438    433    577
  1597   5    434    433    577    578
  1598   6    434    433    577    579
  1599   6    434    433    577    580
  1600   5    438    433    577    578
  1601   6    438    433    577    579
  1602   6    438    433    577    580
  1603   1    433    434    435    436
  1604   2    433    434    435    440
  1605   2    436    435    434    439
  1606   7    439    434    435    440
  1607   1    434    435    436    437
  1608   8    434    435    436    449
  1609   2    437    436    435    440
  1610   9    440    435    436    449
  1611   1    435    436    437    438
  1612   2    435    436    437    441
  1613   8    438    437    436    449
  1614   9    441    437    436    449
  1615  10    435    436    449   1884
  1616  10    435    436    449   1890
  1617  10    435    436    449    461
  1618  10    437    436    449   1884
  1619  10    437    436    449   1890
  1620  10    437    436    449    461
  1621   1    436    437    438    433
  1622   2    436    437    438    442
  1623   2    433    438    437    441
  1624   7    441    437    438    442
  1625   1    448    443    444    445
  1626   8    448    443    444   1889
  1627   2    445    444    443    481
  1628   9    481    443    444   1889
  1629   1    444    443    448    447
  1630   2    444    443    448    484
  1631   2    447    448    443    481
  1632   7    481    443    448    484
  1633   1    443    444    445    446
  1634   2    443    444    445    482
  1635   8    446    445    444   1889
  1636   9    482    445    444   1889
  1637  10    443    444   1889   1876
  1638  10    443    444   1889    450
  1639  10    443    444   1889   1901
  1640  10    445    444   1889   1876
  1641  10    445    444   1889    450
  1642  10    445    444   1889   1901
  1643   1    444    445    446    447
  1644   2    444    445    446    483
  1645   2    447    446    445    482
  1646   7    482    445    446    483
  1647   1    445    446    447    448
  1648   3    445    446    447    697
  1649   2    448    447    446    483
  1650   4    483    446    447    697
  1651   1    446    447    448    443
  1652   2    446    447    448    484
  1653   3    443    448    447    697
  1654   4    484    448    447    697
  1655   5    446    447    697    698
  1656   6    446    447    697    699
  1657   6    446    447    697    700
  1658   5    448    447    697    698
  1659   6    448    447    697    699
  1660   6    448    447    697    700
  1661  10   1883   1884    449    436
  1662  10   1885   1884    449    436
  1663  10   1883   1884    449   1890
  1664  10   1885   1884    449   1890
  1665  10   1883   1884    449    461
  1666  10   1885   1884    449    461
  1667  10   1891   1890    449   1884
  1668  10    455   1890    449   1884
  1669  10   1891   1890    449    436
  1670  10    455   1890    449    436
  1671  10   1891   1890    449    461
  1672  10    455   1890    449    461
  1673  10    460    461    449   1884
  1674  10    456    461    449   1884
  1675  10    460    461    449    436
  1676  10    456    461    449    436
  1677  10    460    461    449   1890
  1678  10    456    461    449   1890
  1679  10    451    450   1889    444
  1680  10    451    450   1889   1876
  1681  10    451    450   1889   1901
  1682  10   1895    450   1889    444
  1683  10   1895    450   1889   1876
  1684  10   1895    450   1889   1901
  1685   8    452    451    450   1889
  1686   9    485    451    450   1889
  1687   1   1895    450    451    452
  1688   2   1895    450    451    485
  1689   8   1894   1895    450   1889
  1690   9   1928   1895    450   1889
  1691   1    451    450   1895   1894
  1692   2    451    450   1895   1928
  1693   1    450    451    452    453
  1694   2    450    451    452    486
  1695   2    453    452    451    485
  1696   7    485    451    452    486
  1697   1    451    452    453   1894
  1698   3    451    452    453    638
  1699   2   1894    453    452    486
  1700   4    486    452    453    638
  1701   1    452    453   1894   1895
  1702   2    452    453   1894   1927
  1703   3   1895   1894    453    638
  1704   4   1927   1894    453    638
  1705   5    452    453    638    637
  1706   6    452    453    638    641
  1707   6    452    453    638    642
  1708   5   1894    453    638    637
  1709   6   1894    453    638    641
  1710   6   1894    453    638    642
  1711   1    455    454   1893   1892
  1712   3    455    454   1893   2078
  1713   2   1892   1893    454    487
  1714   4    487    454   1893   2078
  1715   1   1893    454    455   1890
  1716   2   1893    454    455    488
  1717   2   1890    455    454    487
  1718   7    487    454    455    488
  1719   8    454    455   1890    449
  1720   1    454    455   1890   1891
  1721   9    488    455   1890    449
  1722   2   1891   1890    455    488
  1723   1    461    456    457    458
  1724   2    461    456    457   1930
  1725   2    458    457    456   1929
  1726   7   1929    456    457   1930
  1727   1    457    456    461    460
  1728   8    457    456    461    449
  1729   2    460    461    456   1929
  1730   9   1929    456    461    449
  1731   1    456    457    458    459
  1732   8    456    457    458    462
  1733   2    459    458    457   1930
  1734   9   1930    457    458    462
  1735   1    457    458    459    460
  1736   2    457    458    459    491
  1737   8    460    459    458    462
  1738   9    491    459    458    462
  1739  10    457    458    462    466
  1740  10    457    458    462    469
  1741  10    457    458    462   1920
  1742  10    459    458    462    466
  1743  10    459    458    462    469
  1744  10    459    458    462   1920
  1745   1    458    459    460    461
  1746   2    458    459    460    492
  1747   2    461    460    459    491
  1748   7    491    459    460    492
  1749   8    459    460    461    449
  1750   1    459    460    461    456
  1751   9    492    460    461    449
  1752   2    456    461    460    492
  1753  10    465    466    462    458
  1754  10   1907    466    462    458
  1755  10    465    466    462    469
  1756  10   1907    466    462    469
  1757  10    465    466    462   1920
  1758  10   1907    466    462   1920
  1759  10    470    469    462    458
  1760  10    474    469    462    458
  1761  10    470    469    462    466
  1762  10    474    469    462    466
  1763  10    470    469    462   1920
  1764  10    474    469    462   1920
  1765  10   1915   1920    462    458
  1766  10   1919   1920    462    458
  1767  10   1915   1920    462    466
  1768  10   1919   1920    462    466
  1769  10   1915   1920    462    469
  1770  10   1919   1920    462    469
  1771   1    468    463    464   1905
  1772   2    468    463    464    493
  1773   3   1905    464    463    596
  1774   4    493    464    463    596
  1775   1    464    463    468    467
  1776   2    464    463    468    496
  1777   3    467    468    463    596
  1778   4    496    468    463    596
  1779   5    464    463    596    595
  1780   6    464    463    596    599
  1781   6    464    463    596    600
  1782   5    468    463    596    595
  1783   6    468    463    596    599
  1784   6    468    463    596    600
  1785   1    463    464   1905   1906
  1786   2    463    464   1905   1934
  1787   2   1906   1905    464    493
  1788   7    493    464   1905   1934
  1789   1    466    465   1904   1903
  1790   2    466    465   1904   1933
  1791   2   1903   1904    465    494
  1792   7    494    465   1904   1933
  1793   8   1904    465    466    462
  1794   1   1904    465    466   1907
  1795   9    494    465    466    462
  1796   2   1907    466    465    494
  1797   1    465    466   1907   1908
  1798   2    465    466   1907   1935
  1799   8   1908   1907    466    462
  1800   9   1935   1907    466    462
  1801   1    468    467   1906   1905
  1802   8    468    467   1906   1902
  1803   2   1905   1906    467    495
  1804   9    495    467   1906   1902
  1805   1   1906    467    468    463
  1806   2   1906    467    468    496
  1807   2    463    468    467    495
  1808   7    495    467    468    496
  1809   8    471    470    469    462
  1810   9    497    470    469    462
  1811   1    474    469    470    471
  1812   2    474    469    470    497
  1813   8    473    474    469    462
  1814   9    500    474    469    462
  1815   1    470    469    474    473
  1816   2    470    469    474    500
  1817   1    469    470    471    472
  1818   2    469    470    471    498
  1819   2    472    471    470    497
  1820   7    497    470    471    498
  1821   1    470    471    472    473
  1822   3    470    471    472    601
  1823   2    473    472    471    498
  1824   4    498    471    472    601
  1825   1    471    472    473    474
  1826   2    471    472    473    499
  1827   3    474    473    472    601
  1828   4    499    473    472    601
  1829   5    471    472    601    602
  1830   6    471    472    601    603
  1831   6    471    472    601    604
  1832   5    473    472    601    602
  1833   6    473    472    601    603
  1834   6    473    472    601    604
  1835   1    472    473    474    469
  1836   2    472    473    474    500
  1837   2    469    474    473    499
  1838   7    499    473    474    500
  1839   1    480    475    476    477
  1840   2    480    475    476    502
  1841   2    477    476    475   1941
  1842   7   1941    475    476    502
  1843   1    476    475    480    479
  1844   8    476    475    480   1902
  1845   2    479    480    475   1941
  1846   9   1941    475    480   1902
  1847   1    475    476    477    478
  1848   3    475    476    477    631
  1849   2    478    477    476    502
  1850   4    502    476    477    631
  1851   1    476    477    478    479
  1852   2    476    477    478    503
  1853   3    479    478    477    631
  1854   4    503    478    477    631
  1855   5    476    477    631    632
  1856   6    476    477    631    633
  1857   6    476    477    631    634
  1858   5    478    477    631    632
  1859   6    478    477    631    633
  1860   6    478    477    631    634
  1861   1    477    478    479    480
  1862   2    477    478    479    504
  1863   2    480    479    478    503
  1864   7    503    478    479    504
  1865   1    478    479    480    475
  1866   8    478    479    480   1902
  1867   2    475    480    479    504
  1868   9    504    479    480   1902
  1869  10    475    480   1902   1898
  1870  10    475    480   1902   1906
  1871  10    475    480   1902   1909
  1872  10    479    480   1902   1898
  1873  10    479    480   1902   1906
  1874  10    479    480   1902   1909
  1875   1    510    505    506    507
  1876   2    510    505    506    511
  1877   3    507    506    505    578
  1878   4    511    506    505    578
  1879   1    506    505    510   1949
  1880   2    506    505    510   1954
  1881   3   1949    510    505    578
  1882   4   1954    510    505    578
  1883   5    506    505    578    577
  1884   6    506    505    578    581
  1885   6    506    505    578    582
  1886   5    510    505    578    577
  1887   6    510    505    578    581
  1888   6    510    505    578    582
  1889   1    505    506    507    508
  1890   2    505    506    507    512
  1891   2    508    507    506    511
  1892   7    511    506    507    512
  1893   1    506    507    508   1949
  1894   8    506    507    508    521
  1895   2   1949    508    507    512
  1896   9    512    507    508    521
  1897   1    507    508   1949    510
  1898   2    507    508   1949   1953
  1899   8    510   1949    508    521
  1900   9   1953   1949    508    521
  1901  10    507    508    521    516
  1902  10    507    508    521    522
  1903  10    507    508    521   1973
  1904  10   1949    508    521    516
  1905  10   1949    508    521    522
  1906  10   1949    508    521   1973
  1907   1   1950    509   1948   1947
  1908   8   1950    509   1948   1961
  1909   2   1947   1948    509    513
  1910   9    513    509   1948   1961
  1911   1   1948    509   1950   1945
  1912   2   1948    509   1950    514
  1913   2   1945   1950    509    513
  1914   7    513    509   1950    514
  1915   1    505    510   1949    508
  1916   2    505    510   1949   1953
  1917   2    508   1949    510   1954
  1918   7   1954    510   1949   1953
  1919   1    520    515    516    517
  1920   8    520    515    516    521
  1921   2    517    516    515    553
  1922   9    553    515    516    521
  1923   1    516    515    520    519
  1924   2    516    515    520    556
  1925   2    519    520    515    553
  1926   7    553    515    520    556
  1927   1    515    516    517    518
  1928   2    515    516    517    554
  1929   8    518    517    516    521
  1930   9    554    517    516    521
  1931  10    515    516    521    508
  1932  10    515    516    521    522
  1933  10    515    516    521   1973
  1934  10    517    516    521    508
  1935  10    517    516    521    522
  1936  10    517    516    521   1973
  1937   1    516    517    518    519
  1938   2    516    517    518    555
  1939   2    519    518    517    554
  1940   7    554    517    518    555
  1941   1    517    518    519    520
  1942   3    517    518    519    668
  1943   2    520    519    518    555
  1944   4    555    518    519    668
  1945   1    518    519    520    515
  1946   2    518    519    520    556
  1947   3    515    520    519    668
  1948   4    556    520    519    668
  1949   5    518    519    668    667
  1950   6    518    519    668    671
  1951   6    518    519    668    672
  1952   5    520    519    668    667
  1953   6    520    519    668    671
  1954   6    520    519    668    672
  1955  10    523    522    521    508
  1956  10    527    522    521    508
  1957  10    523    522    521    516
  1958  10    527    522    521    516
  1959  10    523    522    521   1973
  1960  10    527    522    521   1973
  1961  10   1968   1973    521    508
  1962  10   1972   1973    521    508
  1963  10   1968   1973    521    516
  1964  10   1972   1973    521    516
  1965  10   1968   1973    521    522
  1966  10   1972   1973    521    522
  1967   8    524    523    522    521
  1968   9    557    523    522    521
  1969   1    527    522    523    524
  1970   2    527    522    523    557
  1971   8    526    527    522    521
  1972   9   2000    527    522    521
  1973   1    523    522    527    526
  1974   2    523    522    527   2000
  1975   1    522    523    524    525
  1976   2    522    523    524    558
  1977   2    525    524    523    557
  1978   7    557    523    524    558
  1979   1    523    524    525    526
  1980   3    523    524    525    620
  1981   2    526    525    524    558
  1982   4    558    524    525    620
  1983   1    524    525    526    527
  1984   2    524    525    526    559
  1985   3    527    526    525    620
  1986   4    559    526    525    620
  1987   5    524    525    620   2059
  1988   6    524    525    620    623
  1989   6    524    525    620    624
  1990   5    526    525    620   2059
  1991   6    526    525    620    623
  1992   6    526    525    620    624
  1993   1    525    526    527    522
  1994   2    525    526    527   2000
  1995   2    522    527    526    559
  1996   7    559    526    527   2000
  1997   1    533    528    529    530
  1998   2    533    528    529    562
  1999   2    530    529    528    561
  2000   7    561    528    529    562
  2001   1    529    528    533    532
  2002   8    529    528    533   1961
  2003   2    532    533    528    561
  2004   9    561    528    533   1961
  2005   1    528    529    530    531
  2006   8    528    529    530    534
  2007   2    531    530    529    562
  2008   9    562    529    530    534
  2009   1    529    530    531    532
  2010   2    529    530    531    563
  2011   8    532    531    530    534
  2012   9    563    531    530    534
  2013  10    529    530    534    538
  2014  10    529    530    534    541
  2015  10    529    530    534    552
  2016  10    531    530    534    538
  2017  10    531    530    534    541
  2018  10    531    530    534    552
  2019   1    530    531    532    533
  2020   2    530    531    532    564
  2021   2    533    532    531    563
  2022   7    563    531    532    564
  2023   1    531    532    533    528
  2024   8    531    532    533   1961
  2025   2    528    533    532    564
  2026   9    564    532    533   1961
  2027  10    528    533   1961   1948
  2028  10    528    533   1961   1956
  2029  10    528    533   1961   1962
  2030  10    532    533   1961   1948
  2031  10    532    533   1961   1956
  2032  10    532    533   1961   1962
  2033  10    537    538    534    530
  2034  10    539    538    534    530
  2035  10    537    538    534    541
  2036  10    539    538    534    541
  2037  10    537    538    534    552
  2038  10    539    538    534    552
  2039  10    542    541    534    530
  2040  10    546    541    534    530
  2041  10    542    541    534    538
  2042  10    546    541    534    538
  2043  10    542    541    534    552
  2044  10    546    541    534    552
  2045  10    547    552    534    530
  2046  10    551    552    534    530
  2047  10    547    552    534    538
  2048  10    551    552    534    538
  2049  10    547    552    534    541
  2050  10    551    552    534    541
  2051   1    540    535    536    537
  2052   2    540    535    536    565
  2053   3    537    536    535    589
  2054   4    565    536    535    589
  2055   1    536    535    540    539
  2056   2    536    535    540    568
  2057   3    539    540    535    589
  2058   4    568    540    535    589
  2059   5    536    535    589    590
  2060   6    536    535    589    591
  2061   6    536    535    589    592
  2062   5    540    535    589    590
  2063   6    540    535    589    591
  2064   6    540    535    589    592
  2065   1    535    536    537    538
  2066   2    535    536    537    566
  2067   2    538    537    536    565
  2068   7    565    536    537    566
  2069   8    536    537    538    534
  2070   1    536    537    538    539
  2071   9    566    537    538    534
  2072   2    539    538    537    566
  2073   8    540    539    538    534
  2074   9    567    539    538    534
  2075   1    537    538    539    540
  2076   2    537    538    539    567
  2077   1    538    539    540    535
  2078   2    538    539    540    568
  2079   2    535    540    539    567
  2080   7    567    539    540    568
  2081   8    543    542    541    534
  2082   9    569    542    541    534
  2083   1    546    541    542    543
  2084   2    546    541    542    569
  2085   8    545    546    541    534
  2086   9    572    546    541    534
  2087   1    542    541    546    545
  2088   2    542    541    546    572
  2089   1    541    542    543    544
  2090   2    541    542    543    570
  2091   2    544    543    542    569
  2092   7    569    542    543    570
  2093   1    542    543    544    545
  2094   3    542    543    544    583
  2095   2    545    544    543    570
  2096   4    570    543    544    583
  2097   1    543    544    545    546
  2098   2    543    544    545    571
  2099   3    546    545    544    583
  2100   4    571    545    544    583
  2101   5    543    544    583    584
  2102   6    543    544    583    585
  2103   6    543    544    583    586
  2104   5    545    544    583    584
  2105   6    545    544    583    585
  2106   6    545    544    583    586
  2107   1    544    545    546    541
  2108   2    544    545    546    572
  2109   2    541    546    545    571
  2110   7    571    545    546    572
  2111   1    552    547    548    549
  2112   2    552    547    548    574
  2113   2    549    548    547    573
  2114   7    573    547    548    574
  2115   8    548    547    552    534
  2116   1    548    547    552    551
  2117   9    573    547    552    534
  2118   2    551    552    547    573
  2119   1    547    548    549    550
  2120   3    547    548    549   2054
  2121   2    550    549    548    574
  2122   4    574    548    549   2054
  2123   1    548    549    550    551
  2124   2    548    549    550   2015
  2125   3    551    550    549   2054
  2126   4   2015    550    549   2054
  2127   5    548    549   2054   2053
  2128   6    548    549   2054   2057
  2129   6    548    549   2054    618
  2130   5    550    549   2054   2053
  2131   6    550    549   2054   2057
  2132   6    550    549   2054    618
  2133   1    549    550    551    552
  2134   2    549    550    551    576
  2135   2    552    551    550   2015
  2136   7   2015    550    551    576
  2137   1    550    551    552    547
  2138   8    550    551    552    534
  2139   2    547    552    551    576
  2140   9    576    551    552    534
  2141  11    433    577    578    505
  2142  12    433    577    578    581
  2143  12    433    577    578    582
  2144  12    505    578    577    579
  2145  13    579    577    578    581
  2146  13    579    577    578    582
  2147  12    505    578    577    580
  2148  13    580    577    578    581
  2149  13    580    577    578    582
  2150  11    544    583    584    391
  2151  12    544    583    584    587
  2152  12    544    583    584    588
  2153  12    391    584    583    585
  2154  13    585    583    584    587
  2155  13    585    583    584    588
  2156  12    391    584    583    586
  2157  13    586    583    584    587
  2158  13    586    583    584    588
  2159  11    535    589    590   1840
  2160  12    535    589    590    593
  2161  12    535    589    590   2034
  2162  12   1840    590    589    591
  2163  13    591    589    590    593
  2164  13    591    589    590   2034
  2165  12   1840    590    589    592
  2166  13    592    589    590    593
  2167  13    592    589    590   2034
  2168   5   1839   1840    590    589
  2169   5   1841   1840    590    589
  2170   6   1839   1840    590    593
  2171   6   1841   1840    590    593
  2172   6   1839   1840    590   2034
  2173   6   1841   1840    590   2034
  2174  11    328    595    596    463
  2175  12    328    595    596    599
  2176  12    328    595    596    600
  2177  12    463    596    595    597
  2178  13    597    595    596    599
  2179  13    597    595    596    600
  2180  12    463    596    595    598
  2181  13    598    595    596    599
  2182  13    598    595    596    600
  2183  11    472    601    602    319
  2184  12    472    601    602    605
  2185  12    472    601    602    606
  2186  12    319    602    601    603
  2187  13    603    601    602    605
  2188  13    603    601    602    606
  2189  12    319    602    601    604
  2190  13    604    601    602    605
  2191  13    604    601    602    606
  2192   5   1010   1009    607   1328
  2193   5   1014   1009    607   1328
  2194   6   1010   1009    607    609
  2195   6   1014   1009    607    609
  2196   6   1010   1009    607    610
  2197   6   1014   1009    607    610
  2198  11   1009    607   1328   1081
  2199  12   1009    607   1328    611
  2200  12   1009    607   1328   1332
  2201  12   1081   1328    607    609
  2202  13    609    607   1328    611
  2203  13    609    607   1328   1332
  2204  12   1081   1328    607    610
  2205  13    610    607   1328    611
  2206  13    610    607   1328   1332
  2207  11    361    608   1327    289
  2208  12    361    608   1327   1329
  2209  12    361    608   1327   1330
  2210  12    289   1327    608   1331
  2211  13   1331    608   1327   1329
  2212  13   1331    608   1327   1330
  2213  12    289   1327    608    612
  2214  13    612    608   1327   1329
  2215  13    612    608   1327   1330
  2216  11    261    613    614   1989
  2217  12    261    613    614    617
  2218  12    261    613    614   2058
  2219  12   1989    614    613    615
  2220  13    615    613    614    617
  2221  13    615    613    614   2058
  2222  12   1989    614    613    616
  2223  13    616    613    614    617
  2224  13    616    613    614   2058
  2225   5   1988   1989    614    613
  2226   5   1990   1989    614    613
  2227   6   1988   1989    614    617
  2228   6   1990   1989    614    617
  2229   6   1988   1989    614   2058
  2230   6   1990   1989    614   2058
  2231  11    237    619   2060   1965
  2232  12    237    619   2060   2063
  2233  12    237    619   2060   2064
  2234  12   1965   2060    619    621
  2235  13    621    619   2060   2063
  2236  13    621    619   2060   2064
  2237  12   1965   2060    619    622
  2238  13    622    619   2060   2063
  2239  13    622    619   2060   2064
  2240  11    525    620   2059   1677
  2241  12    525    620   2059   2061
  2242  12    525    620   2059   2062
  2243  12   1677   2059    620    623
  2244  13    623    620   2059   2061
  2245  13    623    620   2059   2062
  2246  12   1677   2059    620    624
  2247  13    624    620   2059   2061
  2248  13    624    620   2059   2062
  2249  11    256    625    626   1743
  2250  12    256    625    626    629
  2251  12    256    625    626    630
  2252  12   1743    626    625   2067
  2253  13   2067    625    626    629
  2254  13   2067    625    626    630
  2255  12   1743    626    625    628
  2256  13    628    625    626    629
  2257  13    628    625    626    630
  2258   5   1742   1743    626    625
  2259   5   1744   1743    626    625
  2260   6   1742   1743    626    629
  2261   6   1744   1743    626    629
  2262   6   1742   1743    626    630
  2263   6   1744   1743    626    630
  2264  11    477    631    632    189
  2265  12    477    631    632    635
  2266  12    477    631    632    636
  2267  12    189    632    631    633
  2268  13    633    631    632    635
  2269  13    633    631    632    636
  2270  12    189    632    631    634
  2271  13    634    631    632    635
  2272  13    634    631    632    636
  2273  11    165    637    638    453
  2274  12    165    637    638    641
  2275  12    165    637    638    642
  2276  12    453    638    637    639
  2277  13    639    637    638    641
  2278  13    639    637    638    642
  2279  12    453    638    637    640
  2280  13    640    637    638    641
  2281  13    640    637    638    642
  2282  11    184    643    644    375
  2283  12    184    643    644    647
  2284  12    184    643    644    648
  2285  12    375    644    643    645
  2286  13    645    643    644    647
  2287  13    645    643    644    648
  2288  12    375    644    643   1366
  2289  13   1366    643    644    647
  2290  13   1366    643    644    648
  2291  11    175    649    650    247
  2292  12    175    649    650    653
  2293  12    175    649    650    654
  2294  12    247    650    649    651
  2295  13    651    649    650    653
  2296  13    651    649    650    654
  2297  12    247    650    649    652
  2298  13    652    649    650    653
  2299  13    652    649    650    654
  2300  11    117    655    656    333
  2301  12    117    655    656    659
  2302  12    117    655    656    660
  2303  12    333    656    655    657
  2304  13    657    655    656    659
  2305  13    657    655    656    660
  2306  12    333    656    655    658
  2307  13    658    655    656    659
  2308  13    658    655    656    660
  2309  11     93    661    662    309
  2310  12     93    661    662    665
  2311  12     93    661    662    666
  2312  12    309    662    661    663
  2313  13    663    661    662    665
  2314  13    663    661    662    666
  2315  12    309    662    661    664
  2316  13    664    661    662    665
  2317  13    664    661    662    666
  2318  11    112    667    668    519
  2319  12    112    667    668    671
  2320  12    112    667    668    672
  2321  12    519    668    667    669
  2322  13    669    667    668    671
  2323  13    669    667    668    672
  2324  12    519    668    667    670
  2325  13    670    667    668    671
  2326  13    670    667    668    672
  2327  11    145    673    674     87
  2328  12    145    673    674    677
  2329  12    145    673    674    678
  2330  12     87    674    673   1395
  2331  13   1395    673    674    677
  2332  13   1395    673    674    678
  2333  12     87    674    673    676
  2334  13    676    673    674    677
  2335  13    676    673    674    678
  2336  11     73    679    680    159
  2337  12     73    679    680   1403
  2338  12     73    679    680    684
  2339  12    159    680    679    681
  2340  13    681    679    680   1403
  2341  13    681    679    680    684
  2342  12    159    680    679   1402
  2343  13   1402    679    680   1403
  2344  13   1402    679    680    684
  2345  11     45    685    686    405
  2346  12     45    685    686    689
  2347  12     45    685    686    690
  2348  12    405    686    685    687
  2349  13    687    685    686    689
  2350  13    687    685    686    690
  2351  12    405    686    685    688
  2352  13    688    685    686    689
  2353  13    688    685    686    690
  2354  11    381    691    692     21
  2355  12    381    691    692    695
  2356  12    381    691    692    696
  2357  12     21    692    691    693
  2358  13    693    691    692    695
  2359  13    693    691    692    696
  2360  12     21    692    691    694
  2361  13    694    691    692    695
  2362  13    694    691    692    696
  2363  11    447    697    698     40
  2364  12    447    697    698    701
  2365  12    447    697    698    702
  2366  12     40    698    697    699
  2367  13    699    697    698    701
  2368  13    699    697    698    702
  2369  12     40    698    697    700
  2370  13    700    697    698    701
  2371  13    700    697    698    702
  2372  11      1    703    704    231
  2373  12      1    703    704    707
  2374  12      1    703    704    708
  2375  12    231    704    703    705
  2376  13    705    703    704    707
  2377  13    705    703    704    708
  2378  12    231    704    703    706
  2379  13    706    703    704    707
  2380  13    706    703    704    708
  2381   5   1454   1455    709    710
  2382   5   1456   1455    709    710
  2383   6   1454   1455    709    711
  2384   6   1456   1455    709    711
  2385   6   1454   1455    709    712
  2386   6   1456   1455    709    712
  2387  11   1455    709    710    217
  2388  12   1455    709    710    713
  2389  12   1455    709    710    714
  2390  12    217    710    709    711
  2391  13    711    709    710    713
  2392  13    711    709    710    714
  2393  12    217    710    709    712
  2394  13    712    709    710    713
  2395  13    712    709    710    714
  2396  11    103    715    716     31
  2397  12    103    715    716    719
  2398  12    103    715    716    720
  2399  12     31    716    715    717
  2400  13    717    715    716    719
  2401  13    717    715    716    720
  2402  12     31    716    715    718
  2403  13    718    715    716    719
  2404  13    718    715    716    720
  2405   1    726    721    722    723
  2406   2    726    721    722    727
  2407   3    723    722    721   1423
  2408   4    727    722    721   1423
  2409   1    722    721    726    725
  2410   2    722    721    726    730
  2411   3    725    726    721   1423
  2412   4    730    726    721   1423
  2413   5    722    721   1423   1424
  2414   6    722    721   1423   1425
  2415   6    722    721   1423   1426
  2416   5    726    721   1423   1424
  2417   6    726    721   1423   1425
  2418   6    726    721   1423   1426
  2419   1    721    722    723    724
  2420   2    721    722    723    728
  2421   2    724    723    722    727
  2422   7    727    722    723    728
  2423   1    722    723    724    725
  2424   8    722    723    724    737
  2425   2    725    724    723    728
  2426   9    728    723    724    737
  2427   1    723    724    725    726
  2428   2    723    724    725    729
  2429   8    726    725    724    737
  2430   9    729    725    724    737
  2431  10    723    724    737    732
  2432  10    723    724    737    738
  2433  10    723    724    737    749
  2434  10    725    724    737    732
  2435  10    725    724    737    738
  2436  10    725    724    737    749
  2437   1    724    725    726    721
  2438   2    724    725    726    730
  2439   2    721    726    725    729
  2440   7    729    725    726    730
  2441   1    736    731    732    733
  2442   8    736    731    732    737
  2443   2    733    732    731    769
  2444   9    769    731    732    737
  2445   1    732    731    736    735
  2446   2    732    731    736    772
  2447   2    735    736    731    769
  2448   7    769    731    736    772
  2449   1    731    732    733    734
  2450   2    731    732    733    770
  2451   8    734    733    732    737
  2452   9    770    733    732    737
  2453  10    731    732    737    724
  2454  10    731    732    737    738
  2455  10    731    732    737    749
  2456  10    733    732    737    724
  2457  10    733    732    737    738
  2458  10    733    732    737    749
  2459   1    732    733    734    735
  2460   2    732    733    734    771
  2461   2    735    734    733    770
  2462   7    770    733    734    771
  2463   1    733    734    735    736
  2464   3    733    734    735   2869
  2465   2    736    735    734    771
  2466   4    771    734    735   2869
  2467   1    734    735    736    731
  2468   2    734    735    736    772
  2469   3    731    736    735   2869
  2470   4    772    736    735   2869
  2471   5    734    735   2869   2870
  2472   6    734    735   2869   2871
  2473   6    734    735   2869   2872
  2474   5    736    735   2869   2870
  2475   6    736    735   2869   2871
  2476   6    736    735   2869   2872
  2477  10    739    738    737    724
  2478  10    743    738    737    724
  2479  10    739    738    737    732
  2480  10    743    738    737    732
  2481  10    739    738    737    749
  2482  10    743    738    737    749
  2483  10    744    749    737    724
  2484  10    748    749    737    724
  2485  10    744    749    737    732
  2486  10    748    749    737    732
  2487  10    744    749    737    738
  2488  10    748    749    737    738
  2489   8     20    739    738    737
  2490   9    773    739    738    737
  2491   1    743    738    739     20
  2492   2    743    738    739    773
  2493   8     22    743    738    737
  2494   9    776    743    738    737
  2495   1    739    738    743     22
  2496   2    739    738    743    776
  2497   1     19    740    741    742
  2498   3     19    740    741   1412
  2499   2    742    741    740     54
  2500   4     54    740    741   1412
  2501   1    740    741    742     23
  2502   2    740    741    742    775
  2503   3     23    742    741   1412
  2504   4    775    742    741   1412
  2505   5    740    741   1412   1411
  2506   6    740    741   1412   1415
  2507   6    740    741   1412   1416
  2508   5    742    741   1412   1411
  2509   6    742    741   1412   1415
  2510   6    742    741   1412   1416
  2511   1    749    744    745    746
  2512   2    749    744    745    778
  2513   2    746    745    744    777
  2514   7    777    744    745    778
  2515   8    745    744    749    737
  2516   1    745    744    749    748
  2517   9    777    744    749    737
  2518   2    748    749    744    777
  2519   1    744    745    746    747
  2520   8    744    745    746    750
  2521   2    747    746    745    778
  2522   9    778    745    746    750
  2523   1    745    746    747    748
  2524   2    745    746    747    779
  2525   8    748    747    746    750
  2526   9    779    747    746    750
  2527  10    745    746    750    754
  2528  10    745    746    750    757
  2529  10    745    746    750    768
  2530  10    747    746    750    754
  2531  10    747    746    750    757
  2532  10    747    746    750    768
  2533   1    746    747    748    749
  2534   2    746    747    748    780
  2535   2    749    748    747    779
  2536   7    779    747    748    780
  2537   8    747    748    749    737
  2538   1    747    748    749    744
  2539   9    780    748    749    737
  2540   2    744    749    748    780
  2541  10    753    754    750    746
  2542  10    755    754    750    746
  2543  10    753    754    750    757
  2544  10    755    754    750    757
  2545  10    753    754    750    768
  2546  10    755    754    750    768
  2547  10    758    757    750    746
  2548  10    762    757    750    746
  2549  10    758    757    750    754
  2550  10    762    757    750    754
  2551  10    758    757    750    768
  2552  10    762    757    750    768
  2553  10    763    768    750    746
  2554  10    767    768    750    746
  2555  10    763    768    750    754
  2556  10    767    768    750    754
  2557  10    763    768    750    757
  2558  10    767    768    750    757
  2559   1    756    751    752    753
  2560   2    756    751    752    781
  2561   3    753    752    751   1436
  2562   4    781    752    751   1436
  2563   1    752    751    756    755
  2564   2    752    751    756    784
  2565   3    755    756    751   1436
  2566   4    784    756    751   1436
  2567   5    752    751   1436   1435
  2568   6    752    751   1436   1439
  2569   6    752    751   1436   1440
  2570   5    756    751   1436   1435
  2571   6    756    751   1436   1439
  2572   6    756    751   1436   1440
  2573   1    751    752    753    754
  2574   2    751    752    753    782
  2575   2    754    753    752    781
  2576   7    781    752    753    782
  2577   8    752    753    754    750
  2578   1    752    753    754    755
  2579   9    782    753    754    750
  2580   2    755    754    753    782
  2581   8    756    755    754    750
  2582   9    783    755    754    750
  2583   1    753    754    755    756
  2584   2    753    754    755    783
  2585   1    754    755    756    751
  2586   2    754    755    756    784
  2587   2    751    756    755    783
  2588   7    783    755    756    784
  2589   8    759    758    757    750
  2590   9    785    758    757    750
  2591   1    762    757    758    759
  2592   2    762    757    758    785
  2593   8    761    762    757    750
  2594   9    788    762    757    750
  2595   1    758    757    762    761
  2596   2    758    757    762    788
  2597   1    757    758    759    760
  2598   2    757    758    759    786
  2599   2    760    759    758    785
  2600   7    785    758    759    786
  2601   1    758    759    760    761
  2602   3    758    759    760   1418
  2603   2    761    760    759    786
  2604   4    786    759    760   1418
  2605   1    759    760    761    762
  2606   2    759    760    761    787
  2607   3    762    761    760   1418
  2608   4    787    761    760   1418
  2609   5    759    760   1418   1417
  2610   6    759    760   1418   1421
  2611   6    759    760   1418   1422
  2612   5    761    760   1418   1417
  2613   6    761    760   1418   1421
  2614   6    761    760   1418   1422
  2615   1    760    761    762    757
  2616   2    760    761    762    788
  2617   2    757    762    761    787
  2618   7    787    761    762    788
  2619   1    768    763    764    765
  2620   2    768    763    764    790
  2621   2    765    764    763    789
  2622   7    789    763    764    790
  2623   8    764    763    768    750
  2624   1    764    763    768    767
  2625   9    789    763    768    750
  2626   2    767    768    763    789
  2627   1    763    764    765    766
  2628   3    763    764    765   1405
  2629   2    766    765    764    790
  2630   4    790    764    765   1405
  2631   1    764    765    766    767
  2632   2    764    765    766    791
  2633   3    767    766    765   1405
  2634   4    791    766    765   1405
  2635   5    764    765   1405   1406
  2636   6    764    765   1405   1407
  2637   6    764    765   1405   1408
  2638   5    766    765   1405   1406
  2639   6    766    765   1405   1407
  2640   6    766    765   1405   1408
  2641   1    765    766    767    768
  2642   2    765    766    767    792
  2643   2    768    767    766    791
  2644   7    791    766    767    792
  2645   8    766    767    768    750
  2646   1    766    767    768    763
  2647   9    792    767    768    750
  2648   2    763    768    767    792
  2649   1     74    793    798    797
  2650   2     74    793    798    802
  2651   3    797    798    793   1399
  2652   4    802    798    793   1399
  2653   5     74    793   1399   1400
  2654   6     74    793   1399   1401
  2655   6     74    793   1399    682
  2656   5    798    793   1399   1400
  2657   6    798    793   1399   1401
  2658   6    798    793   1399    682
  2659   1     73    794    795     76
  2660   2     73    794    795    800
  2661   2     76    795    794    799
  2662   7    799    794    795    800
  2663   1     75    796    797    798
  2664   2     75    796    797    801
  2665   8    798    797    796    809
  2666   9    801    797    796    809
  2667  10     75    796    809    804
  2668  10     75    796    809    810
  2669  10     75    796    809    821
  2670  10    797    796    809    804
  2671  10    797    796    809    810
  2672  10    797    796    809    821
  2673   1    796    797    798    793
  2674   2    796    797    798    802
  2675   2    793    798    797    801
  2676   7    801    797    798    802
  2677   1    808    803    804    805
  2678   8    808    803    804    809
  2679   2    805    804    803    841
  2680   9    841    803    804    809
  2681   1    804    803    808    807
  2682   2    804    803    808    844
  2683   2    807    808    803    841
  2684   7    841    803    808    844
  2685   1    803    804    805    806
  2686   2    803    804    805    842
  2687   8    806    805    804    809
  2688   9    842    805    804    809
  2689  10    803    804    809    796
  2690  10    803    804    809    810
  2691  10    803    804    809    821
  2692  10    805    804    809    796
  2693  10    805    804    809    810
  2694  10    805    804    809    821
  2695   1    804    805    806    807
  2696   2    804    805    806    843
  2697   2    807    806    805    842
  2698   7    842    805    806    843
  2699   1    805    806    807    808
  2700   3    805    806    807   1394
  2701   2    808    807    806    843
  2702   4    843    806    807   1394
  2703   1    806    807    808    803
  2704   2    806    807    808    844
  2705   3    803    808    807   1394
  2706   4    844    808    807   1394
  2707   5    806    807   1394   1393
  2708   6    806    807   1394   1397
  2709   6    806    807   1394   1398
  2710   5    808    807   1394   1393
  2711   6    808    807   1394   1397
  2712   6    808    807   1394   1398
  2713  10    811    810    809    804
  2714  10     95    810    809    804
  2715  10    811    810    809    796
  2716  10     95    810    809    796
  2717  10    811    810    809    821
  2718  10     95    810    809    821
  2719  10    820    821    809    804
  2720  10    816    821    809    804
  2721  10    820    821    809    796
  2722  10    816    821    809    796
  2723  10    820    821    809    810
  2724  10    816    821    809    810
  2725   8     92    811    810    809
  2726   9    845    811    810    809
  2727   1     95    810    811     92
  2728   2     95    810    811    845
  2729   1     91    812    813    814
  2730   3     91    812    813   1381
  2731   2    814    813    812    126
  2732   4    126    812    813   1381
  2733   1    812    813    814    815
  2734   2    812    813    814    847
  2735   3    815    814    813   1381
  2736   4    847    814    813   1381
  2737   5    812    813   1381   1382
  2738   6    812    813   1381   1383
  2739   6    812    813   1381   1384
  2740   5    814    813   1381   1382
  2741   6    814    813   1381   1383
  2742   6    814    813   1381   1384
  2743   1    813    814    815     90
  2744   2    813    814    815    848
  2745   2     90    815    814    847
  2746   7    847    814    815    848
  2747   1    821    816    817    818
  2748   2    821    816    817    850
  2749   2    818    817    816    849
  2750   7    849    816    817    850
  2751   1    817    816    821    820
  2752   8    817    816    821    809
  2753   2    820    821    816    849
  2754   9    849    816    821    809
  2755   1    816    817    818    819
  2756   8    816    817    818    822
  2757   2    819    818    817    850
  2758   9    850    817    818    822
  2759   1    817    818    819    820
  2760   2    817    818    819    851
  2761   8    820    819    818    822
  2762   9    851    819    818    822
  2763  10    817    818    822    826
  2764  10    817    818    822    829
  2765  10    817    818    822    840
  2766  10    819    818    822    826
  2767  10    819    818    822    829
  2768  10    819    818    822    840
  2769   1    818    819    820    821
  2770   2    818    819    820    852
  2771   2    821    820    819    851
  2772   7    851    819    820    852
  2773   8    819    820    821    809
  2774   1    819    820    821    816
  2775   9    852    820    821    809
  2776   2    816    821    820    852
  2777  10    825    826    822    818
  2778  10    827    826    822    818
  2779  10    825    826    822    829
  2780  10    827    826    822    829
  2781  10    825    826    822    840
  2782  10    827    826    822    840
  2783  10    830    829    822    818
  2784  10    834    829    822    818
  2785  10    830    829    822    826
  2786  10    834    829    822    826
  2787  10    830    829    822    840
  2788  10    834    829    822    840
  2789  10    839    840    822    818
  2790  10    835    840    822    818
  2791  10    839    840    822    826
  2792  10    835    840    822    826
  2793  10    839    840    822    829
  2794  10    835    840    822    829
  2795   1    828    823    824    825
  2796   2    828    823    824    853
  2797   3    825    824    823   1435
  2798   4    853    824    823   1435
  2799   1    824    823    828    827
  2800   2    824    823    828    856
  2801   3    827    828    823   1435
  2802   4    856    828    823   1435
  2803   5    824    823   1435   1436
  2804   6    824    823   1435   1437
  2805   6    824    823   1435   1438
  2806   5    828    823   1435   1436
  2807   6    828    823   1435   1437
  2808   6    828    823   1435   1438
  2809   1    823    824    825    826
  2810   2    823    824    825    854
  2811   2    826    825    824    853
  2812   7    853    824    825    854
  2813   8    824    825    826    822
  2814   1    824    825    826    827
  2815   9    854    825    826    822
  2816   2    827    826    825    854
  2817   1    825    826    827    828
  2818   2    825    826    827    855
  2819   8    828    827    826    822
  2820   9    855    827    826    822
  2821   1    826    827    828    823
  2822   2    826    827    828    856
  2823   2    823    828    827    855
  2824   7    855    827    828    856
  2825   8    831    830    829    822
  2826   9    857    830    829    822
  2827   1    834    829    830    831
  2828   2    834    829    830    857
  2829   8    833    834    829    822
  2830   9    860    834    829    822
  2831   1    830    829    834    833
  2832   2    830    829    834    860
  2833   1    829    830    831    832
  2834   2    829    830    831    858
  2835   2    832    831    830    857
  2836   7    857    830    831    858
  2837   1    830    831    832    833
  2838   3    830    831    832   1387
  2839   2    833    832    831    858
  2840   4    858    831    832   1387
  2841   1    831    832    833    834
  2842   2    831    832    833    859
  2843   3    834    833    832   1387
  2844   4    859    833    832   1387
  2845   5    831    832   1387   1388
  2846   6    831    832   1387   1389
  2847   6    831    832   1387   1390
  2848   5    833    832   1387   1388
  2849   6    833    832   1387   1389
  2850   6    833    832   1387   1390
  2851   1    832    833    834    829
  2852   2    832    833    834    860
  2853   2    829    834    833    859
  2854   7    859    833    834    860
  2855   1    840    835    836    837
  2856   2    840    835    836    862
  2857   2    837    836    835    861
  2858   7    861    835    836    862
  2859   8    836    835    840    822
  2860   1    836    835    840    839
  2861   9    861    835    840    822
  2862   2    839    840    835    861
  2863   1    835    836    837    838
  2864   3    835    836    837   1375
  2865   2    838    837    836    862
  2866   4    862    836    837   1375
  2867   1    836    837    838    839
  2868   2    836    837    838    863
  2869   3    839    838    837   1375
  2870   4    863    838    837   1375
  2871   5    836    837   1375   1376
  2872   6    836    837   1375   1377
  2873   6    836    837   1375   1378
  2874   5    838    837   1375   1376
  2875   6    838    837   1375   1377
  2876   6    838    837   1375   1378
  2877   1    837    838    839    840
  2878   2    837    838    839    864
  2879   2    840    839    838    863
  2880   7    863    838    839    864
  2881   8    838    839    840    822
  2882   1    838    839    840    835
  2883   9    864    839    840    822
  2884   2    835    840    839    864
  2885   1    150    865    866    867
  2886   2    150    865    866    871
  2887   3    867    866    865   1393
  2888   4    871    866    865   1393
  2889   5    866    865   1393   1394
  2890   6    866    865   1393    675
  2891   6    866    865   1393   1396
  2892   5    150    865   1393   1394
  2893   6    150    865   1393    675
  2894   6    150    865   1393   1396
  2895   1    865    866    867    868
  2896   2    865    866    867    872
  2897   2    868    867    866    871
  2898   7    871    866    867    872
  2899   1    866    867    868    149
  2900   8    866    867    868    881
  2901   2    149    868    867    872
  2902   9    872    867    868    881
  2903  10    867    868    881   2316
  2904  10    867    868    881    882
  2905  10    867    868    881    173
  2906  10    149    868    881   2316
  2907  10    149    868    881    882
  2908  10    149    868    881    173
  2909   1    148    869    870    145
  2910   2    148    869    870    874
  2911   2    145    870    869    873
  2912   7    873    869    870    874
  2913   1    156    875    880    159
  2914   2    156    875    880    916
  2915   2    159    880    875    913
  2916   7    913    875    880    916
  2917   1    155    876    877    878
  2918   2    155    876    877    914
  2919   8    878    877    876   2321
  2920   9    914    877    876   2321
  2921  10    155    876   2321   2308
  2922  10    155    876   2321   2322
  2923  10    155    876   2321   1613
  2924  10    877    876   2321   2308
  2925  10    877    876   2321   2322
  2926  10    877    876   2321   1613
  2927   1    876    877    878    879
  2928   2    876    877    878    915
  2929   2    879    878    877    914
  2930   7    914    877    878    915
  2931   1    877    878    879    160
  2932   3    877    878    879   1400
  2933   2    160    879    878    915
  2934   4    915    878    879   1400
  2935   5    878    879   1400   1399
  2936   6    878    879   1400    683
  2937   6    878    879   1400   1404
  2938   5    160    879   1400   1399
  2939   6    160    879   1400    683
  2940   6    160    879   1400   1404
  2941  10   1595   2316    881    868
  2942  10   2317   2316    881    868
  2943  10   1595   2316    881    882
  2944  10   2317   2316    881    882
  2945  10   1595   2316    881    173
  2946  10   2317   2316    881    173
  2947  10    883    882    881    868
  2948  10    887    882    881    868
  2949  10    883    882    881   2316
  2950  10    887    882    881   2316
  2951  10    883    882    881    173
  2952  10    887    882    881    173
  2953   8    884    883    882    881
  2954   9    917    883    882    881
  2955   1    887    882    883    884
  2956   2    887    882    883    917
  2957   8    886    887    882    881
  2958   9    920    887    882    881
  2959   1    883    882    887    886
  2960   2    883    882    887    920
  2961   1    882    883    884    885
  2962   2    882    883    884    918
  2963   2    885    884    883    917
  2964   7    917    883    884    918
  2965   1    883    884    885    886
  2966   3    883    884    885   1357
  2967   2    886    885    884    918
  2968   4    918    884    885   1357
  2969   1    884    885    886    887
  2970   2    884    885    886    919
  2971   3    887    886    885   1357
  2972   4    919    886    885   1357
  2973   5    884    885   1357   1358
  2974   6    884    885   1357   1359
  2975   6    884    885   1357   1360
  2976   5    886    885   1357   1358
  2977   6    886    885   1357   1359
  2978   6    886    885   1357   1360
  2979   1    885    886    887    882
  2980   2    885    886    887    920
  2981   2    882    887    886    919
  2982   7    919    886    887    920
  2983   1    893    888    889    890
  2984   2    893    888    889    922
  2985   2    890    889    888    921
  2986   7    921    888    889    922
  2987   8    889    888    893    161
  2988   1    889    888    893    892
  2989   9    921    888    893    161
  2990   2    892    893    888    921
  2991   1    888    889    890    891
  2992   8    888    889    890    894
  2993   2    891    890    889    922
  2994   9    922    889    890    894
  2995   1    889    890    891    892
  2996   2    889    890    891    923
  2997   8    892    891    890    894
  2998   9    923    891    890    894
  2999  10    889    890    894    898
  3000  10    889    890    894    901
  3001  10    889    890    894    912
  3002  10    891    890    894    898
  3003  10    891    890    894    901
  3004  10    891    890    894    912
  3005   1    890    891    892    893
  3006   2    890    891    892    204
  3007   2    893    892    891    923
  3008   7    923    891    892    204
  3009   1    891    892    893    888
  3010   8    891    892    893    161
  3011   2    888    893    892    204
  3012   9    204    892    893    161
  3013  10    897    898    894    890
  3014  10    899    898    894    890
  3015  10    897    898    894    901
  3016  10    899    898    894    901
  3017  10    897    898    894    912
  3018  10    899    898    894    912
  3019  10    902    901    894    890
  3020  10    906    901    894    890
  3021  10    902    901    894    898
  3022  10    906    901    894    898
  3023  10    902    901    894    912
  3024  10    906    901    894    912
  3025  10    911    912    894    890
  3026  10    907    912    894    890
  3027  10    911    912    894    898
  3028  10    907    912    894    898
  3029  10    911    912    894    901
  3030  10    907    912    894    901
  3031   1    900    895    896    897
  3032   2    900    895    896    925
  3033   3    897    896    895   1369
  3034   4    925    896    895   1369
  3035   1    896    895    900    899
  3036   2    896    895    900    928
  3037   3    899    900    895   1369
  3038   4    928    900    895   1369
  3039   5    896    895   1369   1370
  3040   6    896    895   1369   1371
  3041   6    896    895   1369   1372
  3042   5    900    895   1369   1370
  3043   6    900    895   1369   1371
  3044   6    900    895   1369   1372
  3045   1    895    896    897    898
  3046   2    895    896    897    926
  3047   2    898    897    896    925
  3048   7    925    896    897    926
  3049   8    896    897    898    894
  3050   1    896    897    898    899
  3051   9    926    897    898    894
  3052   2    899    898    897    926
  3053   8    900    899    898    894
  3054   9    927    899    898    894
  3055   1    897    898    899    900
  3056   2    897    898    899    927
  3057   1    898    899    900    895
  3058   2    898    899    900    928
  3059   2    895    900    899    927
  3060   7    927    899    900    928
  3061   8    903    902    901    894
  3062   9    929    902    901    894
  3063   1    906    901    902    903
  3064   2    906    901    902    929
  3065   8    185    906    901    894
  3066   9    932    906    901    894
  3067   1    902    901    906    185
  3068   2    902    901    906    932
  3069   1    901    902    903    904
  3070   2    901    902    903    930
  3071   2    904    903    902    929
  3072   7    929    902    903    930
  3073   1    902    903    904    185
  3074   3    902    903    904   1363
  3075   2    185    904    903    930
  3076   4    930    903    904   1363
  3077   5    903    904   1363   1364
  3078   6    903    904   1363   1365
  3079   6    903    904   1363    646
  3080   5    185    904   1363   1364
  3081   6    185    904   1363   1365
  3082   6    185    904   1363    646
  3083   1    912    907    908    909
  3084   2    912    907    908    934
  3085   2    909    908    907    933
  3086   7    933    907    908    934
  3087   1    908    907    912    911
  3088   8    908    907    912    894
  3089   2    911    912    907    933
  3090   9    933    907    912    894
  3091   1    907    908    909    910
  3092   3    907    908    909   1352
  3093   2    910    909    908    934
  3094   4    934    908    909   1352
  3095   1    908    909    910    911
  3096   2    908    909    910    935
  3097   3    911    910    909   1352
  3098   4    935    910    909   1352
  3099   5    908    909   1352   1351
  3100   6    908    909   1352   1355
  3101   6    908    909   1352   1356
  3102   5    910    909   1352   1351
  3103   6    910    909   1352   1355
  3104   6    910    909   1352   1356
  3105   1    909    910    911    912
  3106   2    909    910    911    936
  3107   2    912    911    910    935
  3108   7    935    910    911    936
  3109   1    910    911    912    907
  3110   8    910    911    912    894
  3111   2    907    912    911    936
  3112   9    936    911    912    894
  3113   1    942    937    938    939
  3114   2    942    937    938    943
  3115   3    939    938    937   1430
  3116   4    943    938    937   1430
  3117   1    938    937    942    941
  3118   2    938    937    942    946
  3119   3    941    942    937   1430
  3120   4    946    942    937   1430
  3121   5    938    937   1430   1429
  3122   6    938    937   1430   1433
  3123   6    938    937   1430   1434
  3124   5    942    937   1430   1429
  3125   6    942    937   1430   1433
  3126   6    942    937   1430   1434
  3127   1    937    938    939    940
  3128   2    937    938    939    944
  3129   2    940    939    938    943
  3130   7    943    938    939    944
  3131   1    938    939    940    941
  3132   8    938    939    940    953
  3133   2    941    940    939    944
  3134   9    944    939    940    953
  3135   1    939    940    941    942
  3136   2    939    940    941    945
  3137   8    942    941    940    953
  3138   9    945    941    940    953
  3139  10    939    940    953    948
  3140  10    939    940    953    954
  3141  10    939    940    953    965
  3142  10    941    940    953    948
  3143  10    941    940    953    954
  3144  10    941    940    953    965
  3145   1    940    941    942    937
  3146   2    940    941    942    946
  3147   2    937    942    941    945
  3148   7    945    941    942    946
  3149   1    952    947    948    949
  3150   8    952    947    948    953
  3151   2    949    948    947    985
  3152   9    985    947    948    953
  3153   1    948    947    952    951
  3154   2    948    947    952    988
  3155   2    951    952    947    985
  3156   7    985    947    952    988
  3157   1    947    948    949    950
  3158   2    947    948    949    986
  3159   8    950    949    948    953
  3160   9    986    949    948    953
  3161  10    947    948    953    940
  3162  10    947    948    953    954
  3163  10    947    948    953    965
  3164  10    949    948    953    940
  3165  10    949    948    953    954
  3166  10    949    948    953    965
  3167   1    948    949    950    951
  3168   2    948    949    950    987
  3169   2    951    950    949    986
  3170   7    986    949    950    987
  3171   1    949    950    951    952
  3172   3    949    950    951   1424
  3173   2    952    951    950    987
  3174   4    987    950    951   1424
  3175   1    950    951    952    947
  3176   2    950    951    952    988
  3177   3    947    952    951   1424
  3178   4    988    952    951   1424
  3179   5    950    951   1424   1423
  3180   6    950    951   1424   1427
  3181   6    950    951   1424   1428
  3182   5    952    951   1424   1423
  3183   6    952    951   1424   1427
  3184   6    952    951   1424   1428
  3185  10    955    954    953    940
  3186  10    959    954    953    940
  3187  10    955    954    953    948
  3188  10    959    954    953    948
  3189  10    955    954    953    965
  3190  10    959    954    953    965
  3191  10    964    965    953    940
  3192  10    240    965    953    940
  3193  10    964    965    953    948
  3194  10    240    965    953    948
  3195  10    964    965    953    954
  3196  10    240    965    953    954
  3197   8    956    955    954    953
  3198   9    989    955    954    953
  3199   1    959    954    955    956
  3200   2    959    954    955    989
  3201   8    958    959    954    953
  3202   9    992    959    954    953
  3203   1    955    954    959    958
  3204   2    955    954    959    992
  3205   1    954    955    956    957
  3206   2    954    955    956   2430
  3207   2    957    956    955    989
  3208   7    989    955    956   2430
  3209   1    955    956    957    958
  3210   3    955    956    957   1339
  3211   2    958    957    956   2430
  3212   4   2430    956    957   1339
  3213   1    956    957    958    959
  3214   2    956    957    958    991
  3215   3    959    958    957   1339
  3216   4    991    958    957   1339
  3217   5    956    957   1339   2780
  3218   6    956    957   1339   1341
  3219   6    956    957   1339   1342
  3220   5    958    957   1339   2780
  3221   6    958    957   1339   1341
  3222   6    958    957   1339   1342
  3223   1    957    958    959    954
  3224   2    957    958    959    992
  3225   2    954    959    958    991
  3226   7    991    958    959    992
  3227   1    245    960    961    962
  3228   2    245    960    961    994
  3229   2    962    961    960    993
  3230   7    993    960    961    994
  3231   1    960    961    962    963
  3232   8    960    961    962    966
  3233   2    963    962    961    994
  3234   9    994    961    962    966
  3235   1    961    962    963    244
  3236   2    961    962    963    995
  3237   8    244    963    962    966
  3238   9    995    963    962    966
  3239  10    961    962    966    970
  3240  10    961    962    966    973
  3241  10    961    962    966    984
  3242  10    963    962    966    970
  3243  10    963    962    966    973
  3244  10    963    962    966    984
  3245   1    243    964    965    240
  3246   8    243    964    965    953
  3247   2    240    965    964    996
  3248   9    996    964    965    953
  3249  10    969    970    966    962
  3250  10    971    970    966    962
  3251  10    969    970    966    973
  3252  10    971    970    966    973
  3253  10    969    970    966    984
  3254  10    971    970    966    984
  3255  10    974    973    966    962
  3256  10    978    973    966    962
  3257  10    974    973    966    970
  3258  10    978    973    966    970
  3259  10    974    973    966    984
  3260  10    978    973    966    984
  3261  10    983    984    966    962
  3262  10    979    984    966    962
  3263  10    983    984    966    970
  3264  10    979    984    966    970
  3265  10    983    984    966    973
  3266  10    979    984    966    973
  3267   1    972    967    968    969
  3268   2    972    967    968    997
  3269   3    969    968    967   1370
  3270   4    997    968    967   1370
  3271   1    968    967    972    971
  3272   2    968    967    972   1000
  3273   3    971    972    967   1370
  3274   4   1000    972    967   1370
  3275   5    968    967   1370   1369
  3276   6    968    967   1370   1373
  3277   6    968    967   1370   1374
  3278   5    972    967   1370   1369
  3279   6    972    967   1370   1373
  3280   6    972    967   1370   1374
  3281   1    967    968    969    970
  3282   2    967    968    969    998
  3283   2    970    969    968    997
  3284   7    997    968    969    998
  3285   8    968    969    970    966
  3286   1    968    969    970    971
  3287   9    998    969    970    966
  3288   2    971    970    969    998
  3289   1    969    970    971    972
  3290   2    969    970    971    999
  3291   8    972    971    970    966
  3292   9    999    971    970    966
  3293   1    970    971    972    967
  3294   2    970    971    972   1000
  3295   2    967    972    971    999
  3296   7    999    971    972   1000
  3297   8    975    974    973    966
  3298   9   2441    974    973    966
  3299   1    978    973    974    975
  3300   2    978    973    974   2441
  3301   8    977    978    973    966
  3302   9   1004    978    973    966
  3303   1    974    973    978    977
  3304   2    974    973    978   1004
  3305   1    973    974    975    976
  3306   2    973    974    975   2442
  3307   2    976    975    974   2441
  3308   7   2441    974    975   2442
  3309   1    974    975    976    977
  3310   3    974    975    976   1345
  3311   2    977    976    975   2442
  3312   4   2442    975    976   1345
  3313   1    975    976    977    978
  3314   2    975    976    977   1003
  3315   3    978    977    976   1345
  3316   4   1003    977    976   1345
  3317   5    975    976   1345   1346
  3318   6    975    976   1345   2787
  3319   6    975    976   1345   1348
  3320   5    977    976   1345   1346
  3321   6    977    976   1345   2787
  3322   6    977    976   1345   1348
  3323   1    976    977    978    973
  3324   2    976    977    978   1004
  3325   2    973    978    977   1003
  3326   7   1003    977    978   1004
  3327   1    984    979    980   2421
  3328   2    984    979    980   1006
  3329   2   2421    980    979   1005
  3330   7   1005    979    980   1006
  3331   1    980    979    984    983
  3332   8    980    979    984    966
  3333   2    983    984    979   1005
  3334   9   1005    979    984    966
  3335   1    979    980   2421   2422
  3336   3    979    980   2421   2773
  3337   2   2422   2421    980   1006
  3338   4   1006    980   2421   2773
  3339   1    982    981   2420   2419
  3340   2    982    981   2420   2446
  3341   3   2419   2420    981   1333
  3342   4   2446   2420    981   1333
  3343   1   2420    981    982   2423
  3344   2   2420    981    982   1007
  3345   3   2423    982    981   1333
  3346   4   1007    982    981   1333
  3347   5   2420    981   1333   1334
  3348   6   2420    981   1333   1335
  3349   6   2420    981   1333   1336
  3350   5    982    981   1333   1334
  3351   6    982    981   1333   1335
  3352   6    982    981   1333   1336
  3353   1    981    982   2423   2424
  3354   2    981    982   2423   2448
  3355   2   2424   2423    982   1007
  3356   7   1007    982   2423   2448
  3357   1    984    983   2422   2421
  3358   2    984    983   2422   2447
  3359   2   2421   2422    983   1008
  3360   7   1008    983   2422   2447
  3361   1   2422    983    984    979
  3362   8   2422    983    984    966
  3363   2    979    984    983   1008
  3364   9   1008    983    984    966
  3365   1   1014   1009   1010   1011
  3366   2   1014   1009   1010    295
  3367   3   1011   1010   1009    607
  3368   4    295   1010   1009    607
  3369   1   1010   1009   1014   1013
  3370   2   1010   1009   1014   1018
  3371   3   1013   1014   1009    607
  3372   4   1018   1014   1009    607
  3373   1   1009   1010   1011   1012
  3374   2   1009   1010   1011   1016
  3375   2   1012   1011   1010    295
  3376   7    295   1010   1011   1016
  3377   1   1010   1011   1012   1013
  3378   8   1010   1011   1012   1025
  3379   2   1013   1012   1011   1016
  3380   9   1016   1011   1012   1025
  3381   1   1011   1012   1013   1014
  3382   2   1011   1012   1013   1017
  3383   8   1014   1013   1012   1025
  3384   9   1017   1013   1012   1025
  3385  10   1011   1012   1025   1020
  3386  10   1011   1012   1025   1026
  3387  10   1011   1012   1025   1037
  3388  10   1013   1012   1025   1020
  3389  10   1013   1012   1025   1026
  3390  10   1013   1012   1025   1037
  3391   1   1012   1013   1014   1009
  3392   2   1012   1013   1014   1018
  3393   2   1009   1014   1013   1017
  3394   7   1017   1013   1014   1018
  3395   1   1024   1019   1020   1021
  3396   8   1024   1019   1020   1025
  3397   2   1021   1020   1019   1057
  3398   9   1057   1019   1020   1025
  3399   1   1020   1019   1024   1023
  3400   2   1020   1019   1024   1060
  3401   2   1023   1024   1019   1057
  3402   7   1057   1019   1024   1060
  3403   1   1019   1020   1021   1022
  3404   2   1019   1020   1021   1058
  3405   8   1022   1021   1020   1025
  3406   9   1058   1021   1020   1025
  3407  10   1019   1020   1025   1012
  3408  10   1019   1020   1025   1026
  3409  10   1019   1020   1025   1037
  3410  10   1021   1020   1025   1012
  3411  10   1021   1020   1025   1026
  3412  10   1021   1020   1025   1037
  3413   1   1020   1021   1022   1023
  3414   2   1020   1021   1022   1059
  3415   2   1023   1022   1021   1058
  3416   7   1058   1021   1022   1059
  3417   1   1021   1022   1023   1024
  3418   3   1021   1022   1023   2786
  3419   2   1024   1023   1022   1059
  3420   4   1059   1022   1023   2786
  3421   1   1022   1023   1024   1019
  3422   2   1022   1023   1024   1060
  3423   3   1019   1024   1023   2786
  3424   4   1060   1024   1023   2786
  3425   5   1022   1023   2786   2785
  3426   6   1022   1023   2786   2789
  3427   6   1022   1023   2786   2790
  3428   5   1024   1023   2786   2785
  3429   6   1024   1023   2786   2789
  3430   6   1024   1023   2786   2790
  3431  10   1027   1026   1025   1012
  3432  10   1031   1026   1025   1012
  3433  10   1027   1026   1025   1020
  3434  10   1031   1026   1025   1020
  3435  10   1027   1026   1025   1037
  3436  10   1031   1026   1025   1037
  3437  10   1032   1037   1025   1012
  3438  10   1036   1037   1025   1012
  3439  10   1032   1037   1025   1020
  3440  10   1036   1037   1025   1020
  3441  10   1032   1037   1025   1026
  3442  10   1036   1037   1025   1026
  3443   8   1028   1027   1026   1025
  3444   9   1061   1027   1026   1025
  3445   1   1031   1026   1027   1028
  3446   2   1031   1026   1027   1061
  3447   8   1030   1031   1026   1025
  3448   9   1064   1031   1026   1025
  3449   1   1027   1026   1031   1030
  3450   2   1027   1026   1031   1064
  3451   1   1026   1027   1028   1029
  3452   2   1026   1027   1028   1062
  3453   2   1029   1028   1027   1061
  3454   7   1061   1027   1028   1062
  3455   1   1027   1028   1029   1030
  3456   3   1027   1028   1029   1382
  3457   2   1030   1029   1028   1062
  3458   4   1062   1028   1029   1382
  3459   1   1028   1029   1030   1031
  3460   2   1028   1029   1030   1063
  3461   3   1031   1030   1029   1382
  3462   4   1063   1030   1029   1382
  3463   5   1028   1029   1382   1381
  3464   6   1028   1029   1382   1385
  3465   6   1028   1029   1382   1386
  3466   5   1030   1029   1382   1381
  3467   6   1030   1029   1382   1385
  3468   6   1030   1029   1382   1386
  3469   1   1029   1030   1031   1026
  3470   2   1029   1030   1031   1064
  3471   2   1026   1031   1030   1063
  3472   7   1063   1030   1031   1064
  3473   1   1037   1032   1033   1034
  3474   2   1037   1032   1033   1066
  3475   2   1034   1033   1032   1065
  3476   7   1065   1032   1033   1066
  3477   8   1033   1032   1037   1025
  3478   1   1033   1032   1037   1036
  3479   9   1065   1032   1037   1025
  3480   2   1036   1037   1032   1065
  3481   1   1032   1033   1034   1035
  3482   8   1032   1033   1034   1038
  3483   2   1035   1034   1033   1066
  3484   9   1066   1033   1034   1038
  3485   1   1033   1034   1035   1036
  3486   2   1033   1034   1035   1067
  3487   8   1036   1035   1034   1038
  3488   9   1067   1035   1034   1038
  3489  10   1033   1034   1038   1042
  3490  10   1033   1034   1038   1045
  3491  10   1033   1034   1038   1056
  3492  10   1035   1034   1038   1042
  3493  10   1035   1034   1038   1045
  3494  10   1035   1034   1038   1056
  3495   1   1034   1035   1036   1037
  3496   2   1034   1035   1036   1068
  3497   2   1037   1036   1035   1067
  3498   7   1067   1035   1036   1068
  3499   1   1035   1036   1037   1032
  3500   8   1035   1036   1037   1025
  3501   2   1032   1037   1036   1068
  3502   9   1068   1036   1037   1025
  3503  10   1041   1042   1038   1034
  3504  10   1043   1042   1038   1034
  3505  10   1041   1042   1038   1045
  3506  10   1043   1042   1038   1045
  3507  10   1041   1042   1038   1056
  3508  10   1043   1042   1038   1056
  3509  10   1046   1045   1038   1034
  3510  10   1050   1045   1038   1034
  3511  10   1046   1045   1038   1042
  3512  10   1050   1045   1038   1042
  3513  10   1046   1045   1038   1056
  3514  10   1050   1045   1038   1056
  3515  10   1055   1056   1038   1034
  3516  10   1051   1056   1038   1034
  3517  10   1055   1056   1038   1042
  3518  10   1051   1056   1038   1042
  3519  10   1055   1056   1038   1045
  3520  10   1051   1056   1038   1045
  3521   1   1044   1039   1040   1041
  3522   2   1044   1039   1040   1069
  3523   3   1041   1040   1039   1322
  3524   4   1069   1040   1039   1322
  3525   1   1040   1039   1044   1043
  3526   2   1040   1039   1044   1072
  3527   3   1043   1044   1039   1322
  3528   4   1072   1044   1039   1322
  3529   5   1040   1039   1322   1321
  3530   6   1040   1039   1322   1325
  3531   6   1040   1039   1322   1326
  3532   5   1044   1039   1322   1321
  3533   6   1044   1039   1322   1325
  3534   6   1044   1039   1322   1326
  3535   1   1039   1040   1041   1042
  3536   2   1039   1040   1041   1070
  3537   2   1042   1041   1040   1069
  3538   7   1069   1040   1041   1070
  3539   8   1040   1041   1042   1038
  3540   1   1040   1041   1042   1043
  3541   9   1070   1041   1042   1038
  3542   2   1043   1042   1041   1070
  3543   8   1044   1043   1042   1038
  3544   9   1071   1043   1042   1038
  3545   1   1041   1042   1043   1044
  3546   2   1041   1042   1043   1071
  3547   1   1042   1043   1044   1039
  3548   2   1042   1043   1044   1072
  3549   2   1039   1044   1043   1071
  3550   7   1071   1043   1044   1072
  3551   8   1047   1046   1045   1038
  3552   9   1073   1046   1045   1038
  3553   1   1050   1045   1046   1047
  3554   2   1050   1045   1046   1073
  3555   8   1049   1050   1045   1038
  3556   9   1076   1050   1045   1038
  3557   1   1046   1045   1050   1049
  3558   2   1046   1045   1050   1076
  3559   1   1045   1046   1047   1048
  3560   2   1045   1046   1047   1074
  3561   2   1048   1047   1046   1073
  3562   7   1073   1046   1047   1074
  3563   1   1046   1047   1048   1049
  3564   3   1046   1047   1048   1315
  3565   2   1049   1048   1047   1074
  3566   4   1074   1047   1048   1315
  3567   1   1047   1048   1049   1050
  3568   2   1047   1048   1049   1075
  3569   3   1050   1049   1048   1315
  3570   4   1075   1049   1048   1315
  3571   5   1047   1048   1315   1316
  3572   6   1047   1048   1315   1317
  3573   6   1047   1048   1315   1318
  3574   5   1049   1048   1315   1316
  3575   6   1049   1048   1315   1317
  3576   6   1049   1048   1315   1318
  3577   1   1048   1049   1050   1045
  3578   2   1048   1049   1050   1076
  3579   2   1045   1050   1049   1075
  3580   7   1075   1049   1050   1076
  3581   1   1056   1051   1052   1053
  3582   2   1056   1051   1052   1078
  3583   2   1053   1052   1051   1077
  3584   7   1077   1051   1052   1078
  3585   1   1052   1051   1056   1055
  3586   8   1052   1051   1056   1038
  3587   2   1055   1056   1051   1077
  3588   9   1077   1051   1056   1038
  3589   1   1051   1052   1053   1054
  3590   3   1051   1052   1053   1376
  3591   2   1054   1053   1052   1078
  3592   4   1078   1052   1053   1376
  3593   1   1052   1053   1054   1055
  3594   2   1052   1053   1054   1079
  3595   3   1055   1054   1053   1376
  3596   4   1079   1054   1053   1376
  3597   5   1052   1053   1376   1375
  3598   6   1052   1053   1376   1379
  3599   6   1052   1053   1376   1380
  3600   5   1054   1053   1376   1375
  3601   6   1054   1053   1376   1379
  3602   6   1054   1053   1376   1380
  3603   1   1053   1054   1055   1056
  3604   2   1053   1054   1055   1080
  3605   2   1056   1055   1054   1079
  3606   7   1079   1054   1055   1080
  3607   8   1054   1055   1056   1038
  3608   1   1054   1055   1056   1051
  3609   9   1080   1055   1056   1038
  3610   2   1051   1056   1055   1080
  3611   1   1086   1081   1082   1083
  3612   2   1086   1081   1082    367
  3613   3   1083   1082   1081   1328
  3614   4    367   1082   1081   1328
  3615   1   1082   1081   1086   1085
  3616   2   1082   1081   1086   1090
  3617   3   1085   1086   1081   1328
  3618   4   1090   1086   1081   1328
  3619   5   1082   1081   1328    607
  3620   6   1082   1081   1328    611
  3621   6   1082   1081   1328   1332
  3622   5   1086   1081   1328    607
  3623   6   1086   1081   1328    611
  3624   6   1086   1081   1328   1332
  3625   1   1081   1082   1083   1084
  3626   2   1081   1082   1083   1088
  3627   2   1084   1083   1082    367
  3628   7    367   1082   1083   1088
  3629   1   1082   1083   1084   1085
  3630   8   1082   1083   1084   1097
  3631   2   1085   1084   1083   1088
  3632   9   1088   1083   1084   1097
  3633   1   1083   1084   1085   1086
  3634   2   1083   1084   1085   1089
  3635   8   1086   1085   1084   1097
  3636   9   1089   1085   1084   1097
  3637  10   1083   1084   1097   1092
  3638  10   1083   1084   1097   1098
  3639  10   1083   1084   1097   1109
  3640  10   1085   1084   1097   1092
  3641  10   1085   1084   1097   1098
  3642  10   1085   1084   1097   1109
  3643   1   1084   1085   1086   1081
  3644   2   1084   1085   1086   1090
  3645   2   1081   1086   1085   1089
  3646   7   1089   1085   1086   1090
  3647   1   1096   1091   1092   1093
  3648   8   1096   1091   1092   1097
  3649   2   1093   1092   1091   1129
  3650   9   1129   1091   1092   1097
  3651   1   1092   1091   1096   1095
  3652   2   1092   1091   1096   1132
  3653   2   1095   1096   1091   1129
  3654   7   1129   1091   1096   1132
  3655   1   1091   1092   1093   1094
  3656   2   1091   1092   1093   1130
  3657   8   1094   1093   1092   1097
  3658   9   1130   1093   1092   1097
  3659  10   1091   1092   1097   1084
  3660  10   1091   1092   1097   1098
  3661  10   1091   1092   1097   1109
  3662  10   1093   1092   1097   1084
  3663  10   1093   1092   1097   1098
  3664  10   1093   1092   1097   1109
  3665   1   1092   1093   1094   1095
  3666   2   1092   1093   1094   1131
  3667   2   1095   1094   1093   1130
  3668   7   1130   1093   1094   1131
  3669   1   1093   1094   1095   1096
  3670   3   1093   1094   1095   1364
  3671   2   1096   1095   1094   1131
  3672   4   1131   1094   1095   1364
  3673   1   1094   1095   1096   1091
  3674   2   1094   1095   1096   1132
  3675   3   1091   1096   1095   1364
  3676   4   1132   1096   1095   1364
  3677   5   1094   1095   1364   1363
  3678   6   1094   1095   1364   1367
  3679   6   1094   1095   1364   1368
  3680   5   1096   1095   1364   1363
  3681   6   1096   1095   1364   1367
  3682   6   1096   1095   1364   1368
  3683  10   1099   1098   1097   1084
  3684  10   1103   1098   1097   1084
  3685  10   1099   1098   1097   1092
  3686  10   1103   1098   1097   1092
  3687  10   1099   1098   1097   1109
  3688  10   1103   1098   1097   1109
  3689  10   1104   1109   1097   1084
  3690  10   1108   1109   1097   1084
  3691  10   1104   1109   1097   1092
  3692  10   1108   1109   1097   1092
  3693  10   1104   1109   1097   1098
  3694  10   1108   1109   1097   1098
  3695   8   1100   1099   1098   1097
  3696   9   1133   1099   1098   1097
  3697   1   1103   1098   1099   1100
  3698   2   1103   1098   1099   1133
  3699   8   1102   1103   1098   1097
  3700   9   1136   1103   1098   1097
  3701   1   1099   1098   1103   1102
  3702   2   1099   1098   1103   1136
  3703   1   1098   1099   1100   1101
  3704   2   1098   1099   1100   1134
  3705   2   1101   1100   1099   1133
  3706   7   1133   1099   1100   1134
  3707   1   1099   1100   1101   1102
  3708   3   1099   1100   1101   1411
  3709   2   1102   1101   1100   1134
  3710   4   1134   1100   1101   1411
  3711   1   1100   1101   1102   1103
  3712   2   1100   1101   1102   1135
  3713   3   1103   1102   1101   1411
  3714   4   1135   1102   1101   1411
  3715   5   1100   1101   1411   1412
  3716   6   1100   1101   1411   1413
  3717   6   1100   1101   1411   1414
  3718   5   1102   1101   1411   1412
  3719   6   1102   1101   1411   1413
  3720   6   1102   1101   1411   1414
  3721   1   1101   1102   1103   1098
  3722   2   1101   1102   1103   1136
  3723   2   1098   1103   1102   1135
  3724   7   1135   1102   1103   1136
  3725   1   1109   1104   1105   1106
  3726   2   1109   1104   1105   1138
  3727   2   1106   1105   1104   1137
  3728   7   1137   1104   1105   1138
  3729   8   1105   1104   1109   1097
  3730   1   1105   1104   1109   1108
  3731   9   1137   1104   1109   1097
  3732   2   1108   1109   1104   1137
  3733   1   1104   1105   1106   1107
  3734   8   1104   1105   1106   1110
  3735   2   1107   1106   1105   1138
  3736   9   1138   1105   1106   1110
  3737   1   1105   1106   1107   1108
  3738   2   1105   1106   1107   1139
  3739   8   1108   1107   1106   1110
  3740   9   1139   1107   1106   1110
  3741  10   1105   1106   1110   1114
  3742  10   1105   1106   1110   1117
  3743  10   1105   1106   1110   1128
  3744  10   1107   1106   1110   1114
  3745  10   1107   1106   1110   1117
  3746  10   1107   1106   1110   1128
  3747   1   1106   1107   1108   1109
  3748   2   1106   1107   1108   1140
  3749   2   1109   1108   1107   1139
  3750   7   1139   1107   1108   1140
  3751   1   1107   1108   1109   1104
  3752   8   1107   1108   1109   1097
  3753   2   1104   1109   1108   1140
  3754   9   1140   1108   1109   1097
  3755  10   1113   1114   1110   1106
  3756  10   1115   1114   1110   1106
  3757  10   1113   1114   1110   1117
  3758  10   1115   1114   1110   1117
  3759  10   1113   1114   1110   1128
  3760  10   1115   1114   1110   1128
  3761  10   1118   1117   1110   1106
  3762  10   1122   1117   1110   1106
  3763  10   1118   1117   1110   1114
  3764  10   1122   1117   1110   1114
  3765  10   1118   1117   1110   1128
  3766  10   1122   1117   1110   1128
  3767  10   1127   1128   1110   1106
  3768  10   1123   1128   1110   1106
  3769  10   1127   1128   1110   1114
  3770  10   1123   1128   1110   1114
  3771  10   1127   1128   1110   1117
  3772  10   1123   1128   1110   1117
  3773   1   1116   1111   1112   1113
  3774   2   1116   1111   1112   1141
  3775   3   1113   1112   1111   1304
  3776   4   1141   1112   1111   1304
  3777   1   1112   1111   1116   1115
  3778   2   1112   1111   1116   1144
  3779   3   1115   1116   1111   1304
  3780   4   1144   1116   1111   1304
  3781   5   1112   1111   1304   1303
  3782   6   1112   1111   1304   1307
  3783   6   1112   1111   1304   1308
  3784   5   1116   1111   1304   1303
  3785   6   1116   1111   1304   1307
  3786   6   1116   1111   1304   1308
  3787   1   1111   1112   1113   1114
  3788   2   1111   1112   1113   1142
  3789   2   1114   1113   1112   1141
  3790   7   1141   1112   1113   1142
  3791   8   1112   1113   1114   1110
  3792   1   1112   1113   1114   1115
  3793   9   1142   1113   1114   1110
  3794   2   1115   1114   1113   1142
  3795   1   1113   1114   1115   1116
  3796   2   1113   1114   1115   1143
  3797   8   1116   1115   1114   1110
  3798   9   1143   1115   1114   1110
  3799   1   1114   1115   1116   1111
  3800   2   1114   1115   1116   1144
  3801   2   1111   1116   1115   1143
  3802   7   1143   1115   1116   1144
  3803   8   1119   1118   1117   1110
  3804   9   1145   1118   1117   1110
  3805   1   1122   1117   1118   1119
  3806   2   1122   1117   1118   1145
  3807   8   1121   1122   1117   1110
  3808   9   1148   1122   1117   1110
  3809   1   1118   1117   1122   1121
  3810   2   1118   1117   1122   1148
  3811   1   1117   1118   1119   1120
  3812   2   1117   1118   1119   1146
  3813   2   1120   1119   1118   1145
  3814   7   1145   1118   1119   1146
  3815   1   1118   1119   1120   1121
  3816   3   1118   1119   1120   2750
  3817   2   1121   1120   1119   1146
  3818   4   1146   1119   1120   2750
  3819   1   1119   1120   1121   1122
  3820   2   1119   1120   1121   1147
  3821   3   1122   1121   1120   2750
  3822   4   1147   1121   1120   2750
  3823   5   1119   1120   2750   2749
  3824   6   1119   1120   2750   2753
  3825   6   1119   1120   2750   1314
  3826   5   1121   1120   2750   2749
  3827   6   1121   1120   2750   2753
  3828   6   1121   1120   2750   1314
  3829   1   1120   1121   1122   1117
  3830   2   1120   1121   1122   1148
  3831   2   1117   1122   1121   1147
  3832   7   1147   1121   1122   1148
  3833   1   1128   1123   1124   1125
  3834   2   1128   1123   1124   1150
  3835   2   1125   1124   1123   1149
  3836   7   1149   1123   1124   1150
  3837   1   1124   1123   1128   1127
  3838   8   1124   1123   1128   1110
  3839   2   1127   1128   1123   1149
  3840   9   1149   1123   1128   1110
  3841   1   1123   1124   1125   1126
  3842   3   1123   1124   1125   1406
  3843   2   1126   1125   1124   1150
  3844   4   1150   1124   1125   1406
  3845   1   1124   1125   1126   1127
  3846   2   1124   1125   1126   1151
  3847   3   1127   1126   1125   1406
  3848   4   1151   1126   1125   1406
  3849   5   1124   1125   1406   1405
  3850   6   1124   1125   1406   1409
  3851   6   1124   1125   1406   1410
  3852   5   1126   1125   1406   1405
  3853   6   1126   1125   1406   1409
  3854   6   1126   1125   1406   1410
  3855   1   1125   1126   1127   1128
  3856   2   1125   1126   1127   1152
  3857   2   1128   1127   1126   1151
  3858   7   1151   1126   1127   1152
  3859   1   1126   1127   1128   1123
  3860   8   1126   1127   1128   1110
  3861   2   1123   1128   1127   1152
  3862   9   1152   1127   1128   1110
  3863   1   1158   1153   1154   1155
  3864   2   1158   1153   1154   1159
  3865   3   1155   1154   1153   1297
  3866   4   1159   1154   1153   1297
  3867   1   1154   1153   1158   1157
  3868   2   1154   1153   1158   1162
  3869   3   1157   1158   1153   1297
  3870   4   1162   1158   1153   1297
  3871   5   1154   1153   1297   1298
  3872   6   1154   1153   1297   1299
  3873   6   1154   1153   1297   1300
  3874   5   1158   1153   1297   1298
  3875   6   1158   1153   1297   1299
  3876   6   1158   1153   1297   1300
  3877   1   1153   1154   1155   1156
  3878   2   1153   1154   1155   1160
  3879   2   1156   1155   1154   1159
  3880   7   1159   1154   1155   1160
  3881   1   1154   1155   1156   1157
  3882   8   1154   1155   1156   1169
  3883   2   1157   1156   1155   1160
  3884   9   1160   1155   1156   1169
  3885   1   1155   1156   1157   1158
  3886   2   1155   1156   1157   1161
  3887   8   1158   1157   1156   1169
  3888   9   1161   1157   1156   1169
  3889  10   1155   1156   1169   2604
  3890  10   1155   1156   1169   2610
  3891  10   1155   1156   1169   1181
  3892  10   1157   1156   1169   2604
  3893  10   1157   1156   1169   2610
  3894  10   1157   1156   1169   1181
  3895   1   1156   1157   1158   1153
  3896   2   1156   1157   1158   1162
  3897   2   1153   1158   1157   1161
  3898   7   1161   1157   1158   1162
  3899   1   1168   1163   1164   1165
  3900   8   1168   1163   1164   2609
  3901   2   1165   1164   1163   1201
  3902   9   1201   1163   1164   2609
  3903   1   1164   1163   1168   1167
  3904   2   1164   1163   1168   1204
  3905   2   1167   1168   1163   1201
  3906   7   1201   1163   1168   1204
  3907   1   1163   1164   1165   1166
  3908   2   1163   1164   1165   1202
  3909   8   1166   1165   1164   2609
  3910   9   1202   1165   1164   2609
  3911  10   1163   1164   2609   2596
  3912  10   1163   1164   2609   1170
  3913  10   1163   1164   2609   2621
  3914  10   1165   1164   2609   2596
  3915  10   1165   1164   2609   1170
  3916  10   1165   1164   2609   2621
  3917   1   1164   1165   1166   1167
  3918   2   1164   1165   1166   1203
  3919   2   1167   1166   1165   1202
  3920   7   1202   1165   1166   1203
  3921   1   1165   1166   1167   1168
  3922   3   1165   1166   1167   1417
  3923   2   1168   1167   1166   1203
  3924   4   1203   1166   1167   1417
  3925   1   1166   1167   1168   1163
  3926   2   1166   1167   1168   1204
  3927   3   1163   1168   1167   1417
  3928   4   1204   1168   1167   1417
  3929   5   1166   1167   1417   1418
  3930   6   1166   1167   1417   1419
  3931   6   1166   1167   1417   1420
  3932   5   1168   1167   1417   1418
  3933   6   1168   1167   1417   1419
  3934   6   1168   1167   1417   1420
  3935  10   2603   2604   1169   1156
  3936  10   2605   2604   1169   1156
  3937  10   2603   2604   1169   2610
  3938  10   2605   2604   1169   2610
  3939  10   2603   2604   1169   1181
  3940  10   2605   2604   1169   1181
  3941  10   2611   2610   1169   2604
  3942  10   1175   2610   1169   2604
  3943  10   2611   2610   1169   1156
  3944  10   1175   2610   1169   1156
  3945  10   2611   2610   1169   1181
  3946  10   1175   2610   1169   1181
  3947  10   1180   1181   1169   2604
  3948  10   1176   1181   1169   2604
  3949  10   1180   1181   1169   1156
  3950  10   1176   1181   1169   1156
  3951  10   1180   1181   1169   2610
  3952  10   1176   1181   1169   2610
  3953  10   1171   1170   2609   1164
  3954  10   1171   1170   2609   2596
  3955  10   1171   1170   2609   2621
  3956  10   2615   1170   2609   1164
  3957  10   2615   1170   2609   2596
  3958  10   2615   1170   2609   2621
  3959   8   1172   1171   1170   2609
  3960   9   1205   1171   1170   2609
  3961   1   2615   1170   1171   1172
  3962   2   2615   1170   1171   1205
  3963   8   2614   2615   1170   2609
  3964   9   2648   2615   1170   2609
  3965   1   1171   1170   2615   2614
  3966   2   1171   1170   2615   2648
  3967   1   1170   1171   1172   1173
  3968   2   1170   1171   1172   1206
  3969   2   1173   1172   1171   1205
  3970   7   1205   1171   1172   1206
  3971   1   1171   1172   1173   2614
  3972   3   1171   1172   1173   1358
  3973   2   2614   1173   1172   1206
  3974   4   1206   1172   1173   1358
  3975   1   1172   1173   2614   2615
  3976   2   1172   1173   2614   2647
  3977   3   2615   2614   1173   1358
  3978   4   2647   2614   1173   1358
  3979   5   1172   1173   1358   1357
  3980   6   1172   1173   1358   1361
  3981   6   1172   1173   1358   1362
  3982   5   2614   1173   1358   1357
  3983   6   2614   1173   1358   1361
  3984   6   2614   1173   1358   1362
  3985   1   1175   1174   2613   2612
  3986   3   1175   1174   2613   2798
  3987   2   2612   2613   1174   1207
  3988   4   1207   1174   2613   2798
  3989   1   2613   1174   1175   2610
  3990   2   2613   1174   1175   1208
  3991   2   2610   1175   1174   1207
  3992   7   1207   1174   1175   1208
  3993   8   1174   1175   2610   1169
  3994   1   1174   1175   2610   2611
  3995   9   1208   1175   2610   1169
  3996   2   2611   2610   1175   1208
  3997   1   1181   1176   1177   1178
  3998   2   1181   1176   1177   2650
  3999   2   1178   1177   1176   2649
  4000   7   2649   1176   1177   2650
  4001   1   1177   1176   1181   1180
  4002   8   1177   1176   1181   1169
  4003   2   1180   1181   1176   2649
  4004   9   2649   1176   1181   1169
  4005   1   1176   1177   1178   1179
  4006   8   1176   1177   1178   1182
  4007   2   1179   1178   1177   2650
  4008   9   2650   1177   1178   1182
  4009   1   1177   1178   1179   1180
  4010   2   1177   1178   1179   1211
  4011   8   1180   1179   1178   1182
  4012   9   1211   1179   1178   1182
  4013  10   1177   1178   1182   1186
  4014  10   1177   1178   1182   1189
  4015  10   1177   1178   1182   2640
  4016  10   1179   1178   1182   1186
  4017  10   1179   1178   1182   1189
  4018  10   1179   1178   1182   2640
  4019   1   1178   1179   1180   1181
  4020   2   1178   1179   1180   1212
  4021   2   1181   1180   1179   1211
  4022   7   1211   1179   1180   1212
  4023   8   1179   1180   1181   1169
  4024   1   1179   1180   1181   1176
  4025   9   1212   1180   1181   1169
  4026   2   1176   1181   1180   1212
  4027  10   1185   1186   1182   1178
  4028  10   2627   1186   1182   1178
  4029  10   1185   1186   1182   1189
  4030  10   2627   1186   1182   1189
  4031  10   1185   1186   1182   2640
  4032  10   2627   1186   1182   2640
  4033  10   1190   1189   1182   1178
  4034  10   1194   1189   1182   1178
  4035  10   1190   1189   1182   1186
  4036  10   1194   1189   1182   1186
  4037  10   1190   1189   1182   2640
  4038  10   1194   1189   1182   2640
  4039  10   2635   2640   1182   1178
  4040  10   2639   2640   1182   1178
  4041  10   2635   2640   1182   1186
  4042  10   2639   2640   1182   1186
  4043  10   2635   2640   1182   1189
  4044  10   2639   2640   1182   1189
  4045   1   1188   1183   1184   2625
  4046   2   1188   1183   1184   1213
  4047   3   2625   1184   1183   1316
  4048   4   1213   1184   1183   1316
  4049   1   1184   1183   1188   1187
  4050   2   1184   1183   1188   1216
  4051   3   1187   1188   1183   1316
  4052   4   1216   1188   1183   1316
  4053   5   1184   1183   1316   1315
  4054   6   1184   1183   1316   1319
  4055   6   1184   1183   1316   1320
  4056   5   1188   1183   1316   1315
  4057   6   1188   1183   1316   1319
  4058   6   1188   1183   1316   1320
  4059   1   1183   1184   2625   2626
  4060   2   1183   1184   2625   2654
  4061   2   2626   2625   1184   1213
  4062   7   1213   1184   2625   2654
  4063   1   1186   1185   2624   2623
  4064   2   1186   1185   2624   2653
  4065   2   2623   2624   1185   1214
  4066   7   1214   1185   2624   2653
  4067   8   2624   1185   1186   1182
  4068   1   2624   1185   1186   2627
  4069   9   1214   1185   1186   1182
  4070   2   2627   1186   1185   1214
  4071   1   1185   1186   2627   2628
  4072   2   1185   1186   2627   2655
  4073   8   2628   2627   1186   1182
  4074   9   2655   2627   1186   1182
  4075   1   1188   1187   2626   2625
  4076   8   1188   1187   2626   2622
  4077   2   2625   2626   1187   1215
  4078   9   1215   1187   2626   2622
  4079   1   2626   1187   1188   1183
  4080   2   2626   1187   1188   1216
  4081   2   1183   1188   1187   1215
  4082   7   1215   1187   1188   1216
  4083   8   1191   1190   1189   1182
  4084   9   1217   1190   1189   1182
  4085   1   1194   1189   1190   1191
  4086   2   1194   1189   1190   1217
  4087   8   1193   1194   1189   1182
  4088   9   1220   1194   1189   1182
  4089   1   1190   1189   1194   1193
  4090   2   1190   1189   1194   1220
  4091   1   1189   1190   1191   1192
  4092   2   1189   1190   1191   1218
  4093   2   1192   1191   1190   1217
  4094   7   1217   1190   1191   1218
  4095   1   1190   1191   1192   1193
  4096   3   1190   1191   1192   1321
  4097   2   1193   1192   1191   1218
  4098   4   1218   1191   1192   1321
  4099   1   1191   1192   1193   1194
  4100   2   1191   1192   1193   1219
  4101   3   1194   1193   1192   1321
  4102   4   1219   1193   1192   1321
  4103   5   1191   1192   1321   1322
  4104   6   1191   1192   1321   1323
  4105   6   1191   1192   1321   1324
  4106   5   1193   1192   1321   1322
  4107   6   1193   1192   1321   1323
  4108   6   1193   1192   1321   1324
  4109   1   1192   1193   1194   1189
  4110   2   1192   1193   1194   1220
  4111   2   1189   1194   1193   1219
  4112   7   1219   1193   1194   1220
  4113   1   1200   1195   1196   1197
  4114   2   1200   1195   1196   1222
  4115   2   1197   1196   1195   2661
  4116   7   2661   1195   1196   1222
  4117   1   1196   1195   1200   1199
  4118   8   1196   1195   1200   2622
  4119   2   1199   1200   1195   2661
  4120   9   2661   1195   1200   2622
  4121   1   1195   1196   1197   1198
  4122   3   1195   1196   1197   1351
  4123   2   1198   1197   1196   1222
  4124   4   1222   1196   1197   1351
  4125   1   1196   1197   1198   1199
  4126   2   1196   1197   1198   1223
  4127   3   1199   1198   1197   1351
  4128   4   1223   1198   1197   1351
  4129   5   1196   1197   1351   1352
  4130   6   1196   1197   1351   1353
  4131   6   1196   1197   1351   1354
  4132   5   1198   1197   1351   1352
  4133   6   1198   1197   1351   1353
  4134   6   1198   1197   1351   1354
  4135   1   1197   1198   1199   1200
  4136   2   1197   1198   1199   1224
  4137   2   1200   1199   1198   1223
  4138   7   1223   1198   1199   1224
  4139   1   1198   1199   1200   1195
  4140   8   1198   1199   1200   2622
  4141   2   1195   1200   1199   1224
  4142   9   1224   1199   1200   2622
  4143  10   1195   1200   2622   2618
  4144  10   1195   1200   2622   2626
  4145  10   1195   1200   2622   2629
  4146  10   1199   1200   2622   2618
  4147  10   1199   1200   2622   2626
  4148  10   1199   1200   2622   2629
  4149   1   1230   1225   1226   1227
  4150   2   1230   1225   1226   1231
  4151   3   1227   1226   1225   1298
  4152   4   1231   1226   1225   1298
  4153   1   1226   1225   1230   2669
  4154   2   1226   1225   1230   2674
  4155   3   2669   1230   1225   1298
  4156   4   2674   1230   1225   1298
  4157   5   1226   1225   1298   1297
  4158   6   1226   1225   1298   1301
  4159   6   1226   1225   1298   1302
  4160   5   1230   1225   1298   1297
  4161   6   1230   1225   1298   1301
  4162   6   1230   1225   1298   1302
  4163   1   1225   1226   1227   1228
  4164   2   1225   1226   1227   1232
  4165   2   1228   1227   1226   1231
  4166   7   1231   1226   1227   1232
  4167   1   1226   1227   1228   2669
  4168   8   1226   1227   1228   1241
  4169   2   2669   1228   1227   1232
  4170   9   1232   1227   1228   1241
  4171   1   1227   1228   2669   1230
  4172   2   1227   1228   2669   2673
  4173   8   1230   2669   1228   1241
  4174   9   2673   2669   1228   1241
  4175  10   1227   1228   1241   1236
  4176  10   1227   1228   1241   1242
  4177  10   1227   1228   1241   2693
  4178  10   2669   1228   1241   1236
  4179  10   2669   1228   1241   1242
  4180  10   2669   1228   1241   2693
  4181   1   2670   1229   2668   2667
  4182   8   2670   1229   2668   2681
  4183   2   2667   2668   1229   1233
  4184   9   1233   1229   2668   2681
  4185   1   2668   1229   2670   2665
  4186   2   2668   1229   2670   1234
  4187   2   2665   2670   1229   1233
  4188   7   1233   1229   2670   1234
  4189   1   1225   1230   2669   1228
  4190   2   1225   1230   2669   2673
  4191   2   1228   2669   1230   2674
  4192   7   2674   1230   2669   2673
  4193   1   1240   1235   1236   1237
  4194   8   1240   1235   1236   1241
  4195   2   1237   1236   1235   1273
  4196   9   1273   1235   1236   1241
  4197   1   1236   1235   1240   1239
  4198   2   1236   1235   1240   1276
  4199   2   1239   1240   1235   1273
  4200   7   1273   1235   1240   1276
  4201   1   1235   1236   1237   1238
  4202   2   1235   1236   1237   1274
  4203   8   1238   1237   1236   1241
  4204   9   1274   1237   1236   1241
  4205  10   1235   1236   1241   1228
  4206  10   1235   1236   1241   1242
  4207  10   1235   1236   1241   2693
  4208  10   1237   1236   1241   1228
  4209  10   1237   1236   1241   1242
  4210  10   1237   1236   1241   2693
  4211   1   1236   1237   1238   1239
  4212   2   1236   1237   1238   1275
  4213   2   1239   1238   1237   1274
  4214   7   1274   1237   1238   1275
  4215   1   1237   1238   1239   1240
  4216   3   1237   1238   1239   1388
  4217   2   1240   1239   1238   1275
  4218   4   1275   1238   1239   1388
  4219   1   1238   1239   1240   1235
  4220   2   1238   1239   1240   1276
  4221   3   1235   1240   1239   1388
  4222   4   1276   1240   1239   1388
  4223   5   1238   1239   1388   1387
  4224   6   1238   1239   1388   1391
  4225   6   1238   1239   1388   1392
  4226   5   1240   1239   1388   1387
  4227   6   1240   1239   1388   1391
  4228   6   1240   1239   1388   1392
  4229  10   1243   1242   1241   1228
  4230  10   1247   1242   1241   1228
  4231  10   1243   1242   1241   1236
  4232  10   1247   1242   1241   1236
  4233  10   1243   1242   1241   2693
  4234  10   1247   1242   1241   2693
  4235  10   2688   2693   1241   1228
  4236  10   2692   2693   1241   1228
  4237  10   2688   2693   1241   1236
  4238  10   2692   2693   1241   1236
  4239  10   2688   2693   1241   1242
  4240  10   2692   2693   1241   1242
  4241   8   1244   1243   1242   1241
  4242   9   1277   1243   1242   1241
  4243   1   1247   1242   1243   1244
  4244   2   1247   1242   1243   1277
  4245   8   1246   1247   1242   1241
  4246   9   2720   1247   1242   1241
  4247   1   1243   1242   1247   1246
  4248   2   1243   1242   1247   2720
  4249   1   1242   1243   1244   1245
  4250   2   1242   1243   1244   1278
  4251   2   1245   1244   1243   1277
  4252   7   1277   1243   1244   1278
  4253   1   1243   1244   1245   1246
  4254   3   1243   1244   1245   1340
  4255   2   1246   1245   1244   1278
  4256   4   1278   1244   1245   1340
  4257   1   1244   1245   1246   1247
  4258   2   1244   1245   1246   1279
  4259   3   1247   1246   1245   1340
  4260   4   1279   1246   1245   1340
  4261   5   1244   1245   1340   2779
  4262   6   1244   1245   1340   1343
  4263   6   1244   1245   1340   1344
  4264   5   1246   1245   1340   2779
  4265   6   1246   1245   1340   1343
  4266   6   1246   1245   1340   1344
  4267   1   1245   1246   1247   1242
  4268   2   1245   1246   1247   2720
  4269   2   1242   1247   1246   1279
  4270   7   1279   1246   1247   2720
  4271   1   1253   1248   1249   1250
  4272   2   1253   1248   1249   1282
  4273   2   1250   1249   1248   1281
  4274   7   1281   1248   1249   1282
  4275   1   1249   1248   1253   1252
  4276   8   1249   1248   1253   2681
  4277   2   1252   1253   1248   1281
  4278   9   1281   1248   1253   2681
  4279   1   1248   1249   1250   1251
  4280   8   1248   1249   1250   1254
  4281   2   1251   1250   1249   1282
  4282   9   1282   1249   1250   1254
  4283   1   1249   1250   1251   1252
  4284   2   1249   1250   1251   1283
  4285   8   1252   1251   1250   1254
  4286   9   1283   1251   1250   1254
  4287  10   1249   1250   1254   1258
  4288  10   1249   1250   1254   1261
  4289  10   1249   1250   1254   1272
  4290  10   1251   1250   1254   1258
  4291  10   1251   1250   1254   1261
  4292  10   1251   1250   1254   1272
  4293   1   1250   1251   1252   1253
  4294   2   1250   1251   1252   1284
  4295   2   1253   1252   1251   1283
  4296   7   1283   1251   1252   1284
  4297   1   1251   1252   1253   1248
  4298   8   1251   1252   1253   2681
  4299   2   1248   1253   1252   1284
  4300   9   1284   1252   1253   2681
  4301  10   1248   1253   2681   2668
  4302  10   1248   1253   2681   2676
  4303  10   1248   1253   2681   2682
  4304  10   1252   1253   2681   2668
  4305  10   1252   1253   2681   2676
  4306  10   1252   1253   2681   2682
  4307  10   1257   1258   1254   1250
  4308  10   1259   1258   1254   1250
  4309  10   1257   1258   1254   1261
  4310  10   1259   1258   1254   1261
  4311  10   1257   1258   1254   1272
  4312  10   1259   1258   1254   1272
  4313  10   1262   1261   1254   1250
  4314  10   1266   1261   1254   1250
  4315  10   1262   1261   1254   1258
  4316  10   1266   1261   1254   1258
  4317  10   1262   1261   1254   1272
  4318  10   1266   1261   1254   1272
  4319  10   1267   1272   1254   1250
  4320  10   1271   1272   1254   1250
  4321  10   1267   1272   1254   1258
  4322  10   1271   1272   1254   1258
  4323  10   1267   1272   1254   1261
  4324  10   1271   1272   1254   1261
  4325   1   1260   1255   1256   1257
  4326   2   1260   1255   1256   1285
  4327   3   1257   1256   1255   1309
  4328   4   1285   1256   1255   1309
  4329   1   1256   1255   1260   1259
  4330   2   1256   1255   1260   1288
  4331   3   1259   1260   1255   1309
  4332   4   1288   1260   1255   1309
  4333   5   1256   1255   1309   1310
  4334   6   1256   1255   1309   1311
  4335   6   1256   1255   1309   1312
  4336   5   1260   1255   1309   1310
  4337   6   1260   1255   1309   1311
  4338   6   1260   1255   1309   1312
  4339   1   1255   1256   1257   1258
  4340   2   1255   1256   1257   1286
  4341   2   1258   1257   1256   1285
  4342   7   1285   1256   1257   1286
  4343   8   1256   1257   1258   1254
  4344   1   1256   1257   1258   1259
  4345   9   1286   1257   1258   1254
  4346   2   1259   1258   1257   1286
  4347   8   1260   1259   1258   1254
  4348   9   1287   1259   1258   1254
  4349   1   1257   1258   1259   1260
  4350   2   1257   1258   1259   1287
  4351   1   1258   1259   1260   1255
  4352   2   1258   1259   1260   1288
  4353   2   1255   1260   1259   1287
  4354   7   1287   1259   1260   1288
  4355   8   1263   1262   1261   1254
  4356   9   1289   1262   1261   1254
  4357   1   1266   1261   1262   1263
  4358   2   1266   1261   1262   1289
  4359   8   1265   1266   1261   1254
  4360   9   1292   1266   1261   1254
  4361   1   1262   1261   1266   1265
  4362   2   1262   1261   1266   1292
  4363   1   1261   1262   1263   1264
  4364   2   1261   1262   1263   1290
  4365   2   1264   1263   1262   1289
  4366   7   1289   1262   1263   1290
  4367   1   1262   1263   1264   1265
  4368   3   1262   1263   1264   1303
  4369   2   1265   1264   1263   1290
  4370   4   1290   1263   1264   1303
  4371   1   1263   1264   1265   1266
  4372   2   1263   1264   1265   1291
  4373   3   1266   1265   1264   1303
  4374   4   1291   1265   1264   1303
  4375   5   1263   1264   1303   1304
  4376   6   1263   1264   1303   1305
  4377   6   1263   1264   1303   1306
  4378   5   1265   1264   1303   1304
  4379   6   1265   1264   1303   1305
  4380   6   1265   1264   1303   1306
  4381   1   1264   1265   1266   1261
  4382   2   1264   1265   1266   1292
  4383   2   1261   1266   1265   1291
  4384   7   1291   1265   1266   1292
  4385   1   1272   1267   1268   1269
  4386   2   1272   1267   1268   1294
  4387   2   1269   1268   1267   1293
  4388   7   1293   1267   1268   1294
  4389   8   1268   1267   1272   1254
  4390   1   1268   1267   1272   1271
  4391   9   1293   1267   1272   1254
  4392   2   1271   1272   1267   1293
  4393   1   1267   1268   1269   1270
  4394   3   1267   1268   1269   2774
  4395   2   1270   1269   1268   1294
  4396   4   1294   1268   1269   2774
  4397   1   1268   1269   1270   1271
  4398   2   1268   1269   1270   2735
  4399   3   1271   1270   1269   2774
  4400   4   2735   1270   1269   2774
  4401   5   1268   1269   2774   2773
  4402   6   1268   1269   2774   2777
  4403   6   1268   1269   2774   1338
  4404   5   1270   1269   2774   2773
  4405   6   1270   1269   2774   2777
  4406   6   1270   1269   2774   1338
  4407   1   1269   1270   1271   1272
  4408   2   1269   1270   1271   1296
  4409   2   1272   1271   1270   2735
  4410   7   2735   1270   1271   1296
  4411   1   1270   1271   1272   1267
  4412   8   1270   1271   1272   1254
  4413   2   1267   1272   1271   1296
  4414   9   1296   1271   1272   1254
  4415  11   1153   1297   1298   1225
  4416  12   1153   1297   1298   1301
  4417  12   1153   1297   1298   1302
  4418  12   1225   1298   1297   1299
  4419  13   1299   1297   1298   1301
  4420  13   1299   1297   1298   1302
  4421  12   1225   1298   1297   1300
  4422  13   1300   1297   1298   1301
  4423  13   1300   1297   1298   1302
  4424  11   1264   1303   1304   1111
  4425  12   1264   1303   1304   1307
  4426  12   1264   1303   1304   1308
  4427  12   1111   1304   1303   1305
  4428  13   1305   1303   1304   1307
  4429  13   1305   1303   1304   1308
  4430  12   1111   1304   1303   1306
  4431  13   1306   1303   1304   1307
  4432  13   1306   1303   1304   1308
  4433  11   1255   1309   1310   2560
  4434  12   1255   1309   1310   1313
  4435  12   1255   1309   1310   2754
  4436  12   2560   1310   1309   1311
  4437  13   1311   1309   1310   1313
  4438  13   1311   1309   1310   2754
  4439  12   2560   1310   1309   1312
  4440  13   1312   1309   1310   1313
  4441  13   1312   1309   1310   2754
  4442   5   2559   2560   1310   1309
  4443   5   2561   2560   1310   1309
  4444   6   2559   2560   1310   1313
  4445   6   2561   2560   1310   1313
  4446   6   2559   2560   1310   2754
  4447   6   2561   2560   1310   2754
  4448  11   1048   1315   1316   1183
  4449  12   1048   1315   1316   1319
  4450  12   1048   1315   1316   1320
  4451  12   1183   1316   1315   1317
  4452  13   1317   1315   1316   1319
  4453  13   1317   1315   1316   1320
  4454  12   1183   1316   1315   1318
  4455  13   1318   1315   1316   1319
  4456  13   1318   1315   1316   1320
  4457  11   1192   1321   1322   1039
  4458  12   1192   1321   1322   1325
  4459  12   1192   1321   1322   1326
  4460  12   1039   1322   1321   1323
  4461  13   1323   1321   1322   1325
  4462  13   1323   1321   1322   1326
  4463  12   1039   1322   1321   1324
  4464  13   1324   1321   1322   1325
  4465  13   1324   1321   1322   1326
  4466  11    981   1333   1334   2709
  4467  12    981   1333   1334   1337
  4468  12    981   1333   1334   2778
  4469  12   2709   1334   1333   1335
  4470  13   1335   1333   1334   1337
  4471  13   1335   1333   1334   2778
  4472  12   2709   1334   1333   1336
  4473  13   1336   1333   1334   1337
  4474  13   1336   1333   1334   2778
  4475   5   2708   2709   1334   1333
  4476   5   2710   2709   1334   1333
  4477   6   2708   2709   1334   1337
  4478   6   2710   2709   1334   1337
  4479   6   2708   2709   1334   2778
  4480   6   2710   2709   1334   2778
  4481  11    957   1339   2780   2685
  4482  12    957   1339   2780   2783
  4483  12    957   1339   2780   2784
  4484  12   2685   2780   1339   1341
  4485  13   1341   1339   2780   2783
  4486  13   1341   1339   2780   2784
  4487  12   2685   2780   1339   1342
  4488  13   1342   1339   2780   2783
  4489  13   1342   1339   2780   2784
  4490  11   1245   1340   2779   2397
  4491  12   1245   1340   2779   2781
  4492  12   1245   1340   2779   2782
  4493  12   2397   2779   1340   1343
  4494  13   1343   1340   2779   2781
  4495  13   1343   1340   2779   2782
  4496  12   2397   2779   1340   1344
  4497  13   1344   1340   2779   2781
  4498  13   1344   1340   2779   2782
  4499  11    976   1345   1346   2463
  4500  12    976   1345   1346   1349
  4501  12    976   1345   1346   1350
  4502  12   2463   1346   1345   2787
  4503  13   2787   1345   1346   1349
  4504  13   2787   1345   1346   1350
  4505  12   2463   1346   1345   1348
  4506  13   1348   1345   1346   1349
  4507  13   1348   1345   1346   1350
  4508   5   2462   2463   1346   1345
  4509   5   2464   2463   1346   1345
  4510   6   2462   2463   1346   1349
  4511   6   2464   2463   1346   1349
  4512   6   2462   2463   1346   1350
  4513   6   2464   2463   1346   1350
  4514  11   1197   1351   1352    909
  4515  12   1197   1351   1352   1355
  4516  12   1197   1351   1352   1356
  4517  12    909   1352   1351   1353
  4518  13   1353   1351   1352   1355
  4519  13   1353   1351   1352   1356
  4520  12    909   1352   1351   1354
  4521  13   1354   1351   1352   1355
  4522  13   1354   1351   1352   1356
  4523  11    885   1357   1358   1173
  4524  12    885   1357   1358   1361
  4525  12    885   1357   1358   1362
  4526  12   1173   1358   1357   1359
  4527  13   1359   1357   1358   1361
  4528  13   1359   1357   1358   1362
  4529  12   1173   1358   1357   1360
  4530  13   1360   1357   1358   1361
  4531  13   1360   1357   1358   1362
  4532  11    904   1363   1364   1095
  4533  12    904   1363   1364   1367
  4534  12    904   1363   1364   1368
  4535  12   1095   1364   1363   1365
  4536  13   1365   1363   1364   1367
  4537  13   1365   1363   1364   1368
  4538  12   1095   1364   1363    646
  4539  13    646   1363   1364   1367
  4540  13    646   1363   1364   1368
  4541  11    895   1369   1370    967
  4542  12    895   1369   1370   1373
  4543  12    895   1369   1370   1374
  4544  12    967   1370   1369   1371
  4545  13   1371   1369   1370   1373
  4546  13   1371   1369   1370   1374
  4547  12    967   1370   1369   1372
  4548  13   1372   1369   1370   1373
  4549  13   1372   1369   1370   1374
  4550  11    837   1375   1376   1053
  4551  12    837   1375   1376   1379
  4552  12    837   1375   1376   1380
  4553  12   1053   1376   1375   1377
  4554  13   1377   1375   1376   1379
  4555  13   1377   1375   1376   1380
  4556  12   1053   1376   1375   1378
  4557  13   1378   1375   1376   1379
  4558  13   1378   1375   1376   1380
  4559  11    813   1381   1382   1029
  4560  12    813   1381   1382   1385
  4561  12    813   1381   1382   1386
  4562  12   1029   1382   1381   1383
  4563  13   1383   1381   1382   1385
  4564  13   1383   1381   1382   1386
  4565  12   1029   1382   1381   1384
  4566  13   1384   1381   1382   1385
  4567  13   1384   1381   1382   1386
  4568  11    832   1387   1388   1239
  4569  12    832   1387   1388   1391
  4570  12    832   1387   1388   1392
  4571  12   1239   1388   1387   1389
  4572  13   1389   1387   1388   1391
  4573  13   1389   1387   1388   1392
  4574  12   1239   1388   1387   1390
  4575  13   1390   1387   1388   1391
  4576  13   1390   1387   1388   1392
  4577  11    865   1393   1394    807
  4578  12    865   1393   1394   1397
  4579  12    865   1393   1394   1398
  4580  12    807   1394   1393    675
  4581  13    675   1393   1394   1397
  4582  13    675   1393   1394   1398
  4583  12    807   1394   1393   1396
  4584  13   1396   1393   1394   1397
  4585  13   1396   1393   1394   1398
  4586  11    793   1399   1400    879
  4587  12    793   1399   1400    683
  4588  12    793   1399   1400   1404
  4589  12    879   1400   1399   1401
  4590  13   1401   1399   1400    683
  4591  13   1401   1399   1400   1404
  4592  12    879   1400   1399    682
  4593  13    682   1399   1400    683
  4594  13    682   1399   1400   1404
  4595  11    765   1405   1406   1125
  4596  12    765   1405   1406   1409
  4597  12    765   1405   1406   1410
  4598  12   1125   1406   1405   1407
  4599  13   1407   1405   1406   1409
  4600  13   1407   1405   1406   1410
  4601  12   1125   1406   1405   1408
  4602  13   1408   1405   1406   1409
  4603  13   1408   1405   1406   1410
  4604  11   1101   1411   1412    741
  4605  12   1101   1411   1412   1415
  4606  12   1101   1411   1412   1416
  4607  12    741   1412   1411   1413
  4608  13   1413   1411   1412   1415
  4609  13   1413   1411   1412   1416
  4610  12    741   1412   1411   1414
  4611  13   1414   1411   1412   1415
  4612  13   1414   1411   1412   1416
  4613  11   1167   1417   1418    760
  4614  12   1167   1417   1418   1421
  4615  12   1167   1417   1418   1422
  4616  12    760   1418   1417   1419
  4617  13   1419   1417   1418   1421
  4618  13   1419   1417   1418   1422
  4619  12    760   1418   1417   1420
  4620  13   1420   1417   1418   1421
  4621  13   1420   1417   1418   1422
  4622  11    721   1423   1424    951
  4623  12    721   1423   1424   1427
  4624  12    721   1423   1424   1428
  4625  12    951   1424   1423   1425
  4626  13   1425   1423   1424   1427
  4627  13   1425   1423   1424   1428
  4628  12    951   1424   1423   1426
  4629  13   1426   1423   1424   1427
  4630  13   1426   1423   1424   1428
  4631   5   2174   2175   1429   1430
  4632   5   2176   2175   1429   1430
  4633   6   2174   2175   1429   1431
  4634   6   2176   2175   1429   1431
  4635   6   2174   2175   1429   1432
  4636   6   2176   2175   1429   1432
  4637  11   2175   1429   1430    937
  4638  12   2175   1429   1430   1433
  4639  12   2175   1429   1430   1434
  4640  12    937   1430   1429   1431
  4641  13   1431   1429   1430   1433
  4642  13   1431   1429   1430   1434
  4643  12    937   1430   1429   1432
  4644  13   1432   1429   1430   1433
  4645  13   1432   1429   1430   1434
  4646  11    823   1435   1436    751
  4647  12    823   1435   1436   1439
  4648  12    823   1435   1436   1440
  4649  12    751   1436   1435   1437
  4650  13   1437   1435   1436   1439
  4651  13   1437   1435   1436   1440
  4652  12    751   1436   1435   1438
  4653  13   1438   1435   1436   1439
  4654  13   1438   1435   1436   1440
  4655   1   1446   1441   1442   1443
  4656   2   1446   1441   1442   1447
  4657   3   1443   1442   1441   2143
  4658   4   1447   1442   1441   2143
  4659   1   1442   1441   1446   1445
  4660   2   1442   1441   1446   1450
  4661   3   1445   1446   1441   2143
  4662   4   1450   1446   1441   2143
  4663   5   1442   1441   2143   2144
  4664   6   1442   1441   2143   2145
  4665   6   1442   1441   2143   2146
  4666   5   1446   1441   2143   2144
  4667   6   1446   1441   2143   2145
  4668   6   1446   1441   2143   2146
  4669   1   1441   1442   1443   1444
  4670   2   1441   1442   1443   1448
  4671   2   1444   1443   1442   1447
  4672   7   1447   1442   1443   1448
  4673   1   1442   1443   1444   1445
  4674   8   1442   1443   1444   1457
  4675   2   1445   1444   1443   1448
  4676   9   1448   1443   1444   1457
  4677   1   1443   1444   1445   1446
  4678   2   1443   1444   1445   1449
  4679   8   1446   1445   1444   1457
  4680   9   1449   1445   1444   1457
  4681  10   1443   1444   1457   1452
  4682  10   1443   1444   1457   1458
  4683  10   1443   1444   1457   1469
  4684  10   1445   1444   1457   1452
  4685  10   1445   1444   1457   1458
  4686  10   1445   1444   1457   1469
  4687   1   1444   1445   1446   1441
  4688   2   1444   1445   1446   1450
  4689   2   1441   1446   1445   1449
  4690   7   1449   1445   1446   1450
  4691   1   1456   1451   1452   1453
  4692   8   1456   1451   1452   1457
  4693   2   1453   1452   1451   1489
  4694   9   1489   1451   1452   1457
  4695   1   1452   1451   1456   1455
  4696   2   1452   1451   1456   1492
  4697   2   1455   1456   1451   1489
  4698   7   1489   1451   1456   1492
  4699   1   1451   1452   1453   1454
  4700   2   1451   1452   1453   1490
  4701   8   1454   1453   1452   1457
  4702   9   1490   1453   1452   1457
  4703  10   1451   1452   1457   1444
  4704  10   1451   1452   1457   1458
  4705  10   1451   1452   1457   1469
  4706  10   1453   1452   1457   1444
  4707  10   1453   1452   1457   1458
  4708  10   1453   1452   1457   1469
  4709   1   1452   1453   1454   1455
  4710   2   1452   1453   1454   1491
  4711   2   1455   1454   1453   1490
  4712   7   1490   1453   1454   1491
  4713   1   1453   1454   1455   1456
  4714   3   1453   1454   1455    709
  4715   2   1456   1455   1454   1491
  4716   4   1491   1454   1455    709
  4717   1   1454   1455   1456   1451
  4718   2   1454   1455   1456   1492
  4719   3   1451   1456   1455    709
  4720   4   1492   1456   1455    709
  4721  10   1459   1458   1457   1444
  4722  10   1463   1458   1457   1444
  4723  10   1459   1458   1457   1452
  4724  10   1463   1458   1457   1452
  4725  10   1459   1458   1457   1469
  4726  10   1463   1458   1457   1469
  4727  10   1464   1469   1457   1444
  4728  10   1468   1469   1457   1444
  4729  10   1464   1469   1457   1452
  4730  10   1468   1469   1457   1452
  4731  10   1464   1469   1457   1458
  4732  10   1468   1469   1457   1458
  4733   8   2180   1459   1458   1457
  4734   9   1493   1459   1458   1457
  4735   1   1463   1458   1459   2180
  4736   2   1463   1458   1459   1493
  4737   8   2182   1463   1458   1457
  4738   9   1496   1463   1458   1457
  4739   1   1459   1458   1463   2182
  4740   2   1459   1458   1463   1496
  4741   1   1458   1459   2180   2181
  4742   2   1458   1459   2180   1494
  4743   2   2181   2180   1459   1493
  4744   7   1493   1459   2180   1494
  4745   1   1461   1460   2179   2178
  4746   2   1461   1460   2179   2213
  4747   2   2178   2179   1460   2214
  4748   7   2214   1460   2179   2213
  4749   1   2179   1460   1461   1462
  4750   3   2179   1460   1461   2132
  4751   2   1462   1461   1460   2214
  4752   4   2214   1460   1461   2132
  4753   1   1460   1461   1462   2183
  4754   2   1460   1461   1462   1495
  4755   3   2183   1462   1461   2132
  4756   4   1495   1462   1461   2132
  4757   5   1460   1461   2132   2131
  4758   6   1460   1461   2132   2135
  4759   6   1460   1461   2132   2136
  4760   5   1462   1461   2132   2131
  4761   6   1462   1461   2132   2135
  4762   6   1462   1461   2132   2136
  4763   1   1461   1462   2183   2178
  4764   2   1461   1462   2183   2216
  4765   2   2178   2183   1462   1495
  4766   7   1495   1462   2183   2216
  4767   1   1458   1463   2182   2181
  4768   2   1458   1463   2182   2215
  4769   2   2181   2182   1463   1496
  4770   7   1496   1463   2182   2215
  4771   1   1469   1464   1465   1466
  4772   2   1469   1464   1465   1498
  4773   2   1466   1465   1464   1497
  4774   7   1497   1464   1465   1498
  4775   8   1465   1464   1469   1457
  4776   1   1465   1464   1469   1468
  4777   9   1497   1464   1469   1457
  4778   2   1468   1469   1464   1497
  4779   1   1464   1465   1466   1467
  4780   8   1464   1465   1466   1470
  4781   2   1467   1466   1465   1498
  4782   9   1498   1465   1466   1470
  4783   1   1465   1466   1467   1468
  4784   2   1465   1466   1467   1499
  4785   8   1468   1467   1466   1470
  4786   9   1499   1467   1466   1470
  4787  10   1465   1466   1470   1474
  4788  10   1465   1466   1470   1477
  4789  10   1465   1466   1470   1488
  4790  10   1467   1466   1470   1474
  4791  10   1467   1466   1470   1477
  4792  10   1467   1466   1470   1488
  4793   1   1466   1467   1468   1469
  4794   2   1466   1467   1468   1500
  4795   2   1469   1468   1467   1499
  4796   7   1499   1467   1468   1500
  4797   8   1467   1468   1469   1457
  4798   1   1467   1468   1469   1464
  4799   9   1500   1468   1469   1457
  4800   2   1464   1469   1468   1500
  4801  10   1473   1474   1470   1466
  4802  10   1475   1474   1470   1466
  4803  10   1473   1474   1470   1477
  4804  10   1475   1474   1470   1477
  4805  10   1473   1474   1470   1488
  4806  10   1475   1474   1470   1488
  4807  10   1478   1477   1470   1466
  4808  10   1482   1477   1470   1466
  4809  10   1478   1477   1470   1474
  4810  10   1482   1477   1470   1474
  4811  10   1478   1477   1470   1488
  4812  10   1482   1477   1470   1488
  4813  10   1483   1488   1470   1466
  4814  10   1487   1488   1470   1466
  4815  10   1483   1488   1470   1474
  4816  10   1487   1488   1470   1474
  4817  10   1483   1488   1470   1477
  4818  10   1487   1488   1470   1477
  4819   1   1476   1471   1472   1473
  4820   2   1476   1471   1472   1501
  4821   3   1473   1472   1471   2156
  4822   4   1501   1472   1471   2156
  4823   1   1472   1471   1476   1475
  4824   2   1472   1471   1476   1504
  4825   3   1475   1476   1471   2156
  4826   4   1504   1476   1471   2156
  4827   5   1472   1471   2156   2155
  4828   6   1472   1471   2156   2159
  4829   6   1472   1471   2156   2160
  4830   5   1476   1471   2156   2155
  4831   6   1476   1471   2156   2159
  4832   6   1476   1471   2156   2160
  4833   1   1471   1472   1473   1474
  4834   2   1471   1472   1473   1502
  4835   2   1474   1473   1472   1501
  4836   7   1501   1472   1473   1502
  4837   8   1472   1473   1474   1470
  4838   1   1472   1473   1474   1475
  4839   9   1502   1473   1474   1470
  4840   2   1475   1474   1473   1502
  4841   8   1476   1475   1474   1470
  4842   9   1503   1475   1474   1470
  4843   1   1473   1474   1475   1476
  4844   2   1473   1474   1475   1503
  4845   1   1474   1475   1476   1471
  4846   2   1474   1475   1476   1504
  4847   2   1471   1476   1475   1503
  4848   7   1503   1475   1476   1504
  4849   8   1479   1478   1477   1470
  4850   9   1505   1478   1477   1470
  4851   1   1482   1477   1478   1479
  4852   2   1482   1477   1478   1505
  4853   8   1481   1482   1477   1470
  4854   9   1508   1482   1477   1470
  4855   1   1478   1477   1482   1481
  4856   2   1478   1477   1482   1508
  4857   1   1477   1478   1479   1480
  4858   2   1477   1478   1479   1506
  4859   2   1480   1479   1478   1505
  4860   7   1505   1478   1479   1506
  4861   1   1478   1479   1480   1481
  4862   3   1478   1479   1480   2138
  4863   2   1481   1480   1479   1506
  4864   4   1506   1479   1480   2138
  4865   1   1479   1480   1481   1482
  4866   2   1479   1480   1481   1507
  4867   3   1482   1481   1480   2138
  4868   4   1507   1481   1480   2138
  4869   5   1479   1480   2138   2137
  4870   6   1479   1480   2138   2141
  4871   6   1479   1480   2138   2142
  4872   5   1481   1480   2138   2137
  4873   6   1481   1480   2138   2141
  4874   6   1481   1480   2138   2142
  4875   1   1480   1481   1482   1477
  4876   2   1480   1481   1482   1508
  4877   2   1477   1482   1481   1507
  4878   7   1507   1481   1482   1508
  4879   1   1488   1483   1484   1485
  4880   2   1488   1483   1484   1510
  4881   2   1485   1484   1483   1509
  4882   7   1509   1483   1484   1510
  4883   8   1484   1483   1488   1470
  4884   1   1484   1483   1488   1487
  4885   9   1509   1483   1488   1470
  4886   2   1487   1488   1483   1509
  4887   1   1483   1484   1485   1486
  4888   3   1483   1484   1485   2125
  4889   2   1486   1485   1484   1510
  4890   4   1510   1484   1485   2125
  4891   1   1484   1485   1486   1487
  4892   2   1484   1485   1486   1511
  4893   3   1487   1486   1485   2125
  4894   4   1511   1486   1485   2125
  4895   5   1484   1485   2125   2126
  4896   6   1484   1485   2125   2127
  4897   6   1484   1485   2125   2128
  4898   5   1486   1485   2125   2126
  4899   6   1486   1485   2125   2127
  4900   6   1486   1485   2125   2128
  4901   1   1485   1486   1487   1488
  4902   2   1485   1486   1487   1512
  4903   2   1488   1487   1486   1511
  4904   7   1511   1486   1487   1512
  4905   8   1486   1487   1488   1470
  4906   1   1486   1487   1488   1483
  4907   9   1512   1487   1488   1470
  4908   2   1483   1488   1487   1512
  4909   1   1518   1513   2234   2235
  4910   2   1518   1513   2234   2239
  4911   3   2235   2234   1513   2119
  4912   4   2239   2234   1513   2119
  4913   1   2234   1513   1518   1517
  4914   2   2234   1513   1518   1522
  4915   3   1517   1518   1513   2119
  4916   4   1522   1518   1513   2119
  4917   5   2234   1513   2119   2120
  4918   6   2234   1513   2119   2121
  4919   6   2234   1513   2119   2842
  4920   5   1518   1513   2119   2120
  4921   6   1518   1513   2119   2121
  4922   6   1518   1513   2119   2842
  4923   1   1515   1514   2233   2238
  4924   3   1515   1514   2233   2839
  4925   2   2238   2233   1514   1519
  4926   4   1519   1514   2233   2839
  4927   1   2233   1514   1515   2236
  4928   2   2233   1514   1515   1520
  4929   2   2236   1515   1514   1519
  4930   7   1519   1514   1515   1520
  4931   1   1514   1515   2236   2237
  4932   8   1514   1515   2236   2249
  4933   2   2237   2236   1515   1520
  4934   9   1520   1515   2236   2249
  4935   1   1517   1516   2235   2234
  4936   2   1517   1516   2235   2240
  4937   8   2234   2235   1516   1529
  4938   9   2240   2235   1516   1529
  4939   1   2235   1516   1517   1518
  4940   2   2235   1516   1517   1521
  4941   8   1518   1517   1516   1529
  4942   9   1521   1517   1516   1529
  4943  10   2235   1516   1529   1524
  4944  10   2235   1516   1529   1530
  4945  10   2235   1516   1529   1541
  4946  10   1517   1516   1529   1524
  4947  10   1517   1516   1529   1530
  4948  10   1517   1516   1529   1541
  4949   1   1516   1517   1518   1513
  4950   2   1516   1517   1518   1522
  4951   2   1513   1518   1517   1521
  4952   7   1521   1517   1518   1522
  4953   1   1528   1523   1524   1525
  4954   8   1528   1523   1524   1529
  4955   2   1525   1524   1523   1561
  4956   9   1561   1523   1524   1529
  4957   1   1524   1523   1528   1527
  4958   2   1524   1523   1528   1564
  4959   2   1527   1528   1523   1561
  4960   7   1561   1523   1528   1564
  4961   1   1523   1524   1525   1526
  4962   2   1523   1524   1525   1562
  4963   8   1526   1525   1524   1529
  4964   9   1562   1525   1524   1529
  4965  10   1523   1524   1529   1516
  4966  10   1523   1524   1529   1530
  4967  10   1523   1524   1529   1541
  4968  10   1525   1524   1529   1516
  4969  10   1525   1524   1529   1530
  4970  10   1525   1524   1529   1541
  4971   1   1524   1525   1526   1527
  4972   2   1524   1525   1526   1563
  4973   2   1527   1526   1525   1562
  4974   7   1562   1525   1526   1563
  4975   1   1525   1526   1527   1528
  4976   3   1525   1526   1527   2114
  4977   2   1528   1527   1526   1563
  4978   4   1563   1526   1527   2114
  4979   1   1526   1527   1528   1523
  4980   2   1526   1527   1528   1564
  4981   3   1523   1528   1527   2114
  4982   4   1564   1528   1527   2114
  4983   5   1526   1527   2114   2113
  4984   6   1526   1527   2114   2117
  4985   6   1526   1527   2114   2118
  4986   5   1528   1527   2114   2113
  4987   6   1528   1527   2114   2117
  4988   6   1528   1527   2114   2118
  4989  10   1531   1530   1529   1524
  4990  10   2255   1530   1529   1524
  4991  10   1531   1530   1529   1516
  4992  10   2255   1530   1529   1516
  4993  10   1531   1530   1529   1541
  4994  10   2255   1530   1529   1541
  4995  10   1540   1541   1529   1524
  4996  10   1536   1541   1529   1524
  4997  10   1540   1541   1529   1516
  4998  10   1536   1541   1529   1516
  4999  10   1540   1541   1529   1530
  5000  10   1536   1541   1529   1530
  5001   8   2252   1531   1530   1529
  5002   9   1565   1531   1530   1529
  5003   1   2255   1530   1531   2252
  5004   2   2255   1530   1531   1565
  5005   8   2254   2255   1530   1529
  5006   9   2288   2255   1530   1529
  5007   1   1531   1530   2255   2254
  5008   2   1531   1530   2255   2288
  5009   1   1530   1531   2252   2253
  5010   2   1530   1531   2252   1566
  5011   2   2253   2252   1531   1565
  5012   7   1565   1531   2252   1566
  5013   1   1533   1532   2251   2250
  5014   2   1533   1532   2251   2285
  5015   2   2250   2251   1532   2286
  5016   7   2286   1532   2251   2285
  5017   1   2251   1532   1533   1534
  5018   3   2251   1532   1533   2101
  5019   2   1534   1533   1532   2286
  5020   4   2286   1532   1533   2101
  5021   1   1532   1533   1534   1535
  5022   2   1532   1533   1534   1567
  5023   3   1535   1534   1533   2101
  5024   4   1567   1534   1533   2101
  5025   5   1532   1533   2101   2102
  5026   6   1532   1533   2101   2103
  5027   6   1532   1533   2101   2104
  5028   5   1534   1533   2101   2102
  5029   6   1534   1533   2101   2103
  5030   6   1534   1533   2101   2104
  5031   1   1533   1534   1535   2250
  5032   2   1533   1534   1535   1568
  5033   2   2250   1535   1534   1567
  5034   7   1567   1534   1535   1568
  5035   8   1534   1535   2250   2249
  5036   1   1534   1535   2250   2251
  5037   9   1568   1535   2250   2249
  5038   2   2251   2250   1535   1568
  5039   1   1541   1536   1537   1538
  5040   2   1541   1536   1537   1570
  5041   2   1538   1537   1536   1569
  5042   7   1569   1536   1537   1570
  5043   1   1537   1536   1541   1540
  5044   8   1537   1536   1541   1529
  5045   2   1540   1541   1536   1569
  5046   9   1569   1536   1541   1529
  5047   1   1536   1537   1538   1539
  5048   8   1536   1537   1538   1542
  5049   2   1539   1538   1537   1570
  5050   9   1570   1537   1538   1542
  5051   1   1537   1538   1539   1540
  5052   2   1537   1538   1539   1571
  5053   8   1540   1539   1538   1542
  5054   9   1571   1539   1538   1542
  5055  10   1537   1538   1542   1546
  5056  10   1537   1538   1542   1549
  5057  10   1537   1538   1542   1560
  5058  10   1539   1538   1542   1546
  5059  10   1539   1538   1542   1549
  5060  10   1539   1538   1542   1560
  5061   1   1538   1539   1540   1541
  5062   2   1538   1539   1540   1572
  5063   2   1541   1540   1539   1571
  5064   7   1571   1539   1540   1572
  5065   8   1539   1540   1541   1529
  5066   1   1539   1540   1541   1536
  5067   9   1572   1540   1541   1529
  5068   2   1536   1541   1540   1572
  5069  10   1545   1546   1542   1538
  5070  10   1547   1546   1542   1538
  5071  10   1545   1546   1542   1549
  5072  10   1547   1546   1542   1549
  5073  10   1545   1546   1542   1560
  5074  10   1547   1546   1542   1560
  5075  10   1550   1549   1542   1538
  5076  10   1554   1549   1542   1538
  5077  10   1550   1549   1542   1546
  5078  10   1554   1549   1542   1546
  5079  10   1550   1549   1542   1560
  5080  10   1554   1549   1542   1560
  5081  10   1559   1560   1542   1538
  5082  10   1555   1560   1542   1538
  5083  10   1559   1560   1542   1546
  5084  10   1555   1560   1542   1546
  5085  10   1559   1560   1542   1549
  5086  10   1555   1560   1542   1549
  5087   1   1548   1543   1544   1545
  5088   2   1548   1543   1544   1573
  5089   3   1545   1544   1543   2155
  5090   4   1573   1544   1543   2155
  5091   1   1544   1543   1548   1547
  5092   2   1544   1543   1548   1576
  5093   3   1547   1548   1543   2155
  5094   4   1576   1548   1543   2155
  5095   5   1544   1543   2155   2156
  5096   6   1544   1543   2155   2157
  5097   6   1544   1543   2155   2158
  5098   5   1548   1543   2155   2156
  5099   6   1548   1543   2155   2157
  5100   6   1548   1543   2155   2158
  5101   1   1543   1544   1545   1546
  5102   2   1543   1544   1545   1574
  5103   2   1546   1545   1544   1573
  5104   7   1573   1544   1545   1574
  5105   8   1544   1545   1546   1542
  5106   1   1544   1545   1546   1547
  5107   9   1574   1545   1546   1542
  5108   2   1547   1546   1545   1574
  5109   1   1545   1546   1547   1548
  5110   2   1545   1546   1547   1575
  5111   8   1548   1547   1546   1542
  5112   9   1575   1547   1546   1542
  5113   1   1546   1547   1548   1543
  5114   2   1546   1547   1548   1576
  5115   2   1543   1548   1547   1575
  5116   7   1575   1547   1548   1576
  5117   8   1551   1550   1549   1542
  5118   9   1577   1550   1549   1542
  5119   1   1554   1549   1550   1551
  5120   2   1554   1549   1550   1577
  5121   8   1553   1554   1549   1542
  5122   9   1580   1554   1549   1542
  5123   1   1550   1549   1554   1553
  5124   2   1550   1549   1554   1580
  5125   1   1549   1550   1551   1552
  5126   2   1549   1550   1551   1578
  5127   2   1552   1551   1550   1577
  5128   7   1577   1550   1551   1578
  5129   1   1550   1551   1552   1553
  5130   3   1550   1551   1552   2107
  5131   2   1553   1552   1551   1578
  5132   4   1578   1551   1552   2107
  5133   1   1551   1552   1553   1554
  5134   2   1551   1552   1553   1579
  5135   3   1554   1553   1552   2107
  5136   4   1579   1553   1552   2107
  5137   5   1551   1552   2107   2108
  5138   6   1551   1552   2107   2109
  5139   6   1551   1552   2107   2110
  5140   5   1553   1552   2107   2108
  5141   6   1553   1552   2107   2109
  5142   6   1553   1552   2107   2110
  5143   1   1552   1553   1554   1549
  5144   2   1552   1553   1554   1580
  5145   2   1549   1554   1553   1579
  5146   7   1579   1553   1554   1580
  5147   1   1560   1555   1556   1557
  5148   2   1560   1555   1556   1582
  5149   2   1557   1556   1555   1581
  5150   7   1581   1555   1556   1582
  5151   8   1556   1555   1560   1542
  5152   1   1556   1555   1560   1559
  5153   9   1581   1555   1560   1542
  5154   2   1559   1560   1555   1581
  5155   1   1555   1556   1557   1558
  5156   3   1555   1556   1557   2095
  5157   2   1558   1557   1556   1582
  5158   4   1582   1556   1557   2095
  5159   1   1556   1557   1558   1559
  5160   2   1556   1557   1558   1583
  5161   3   1559   1558   1557   2095
  5162   4   1583   1558   1557   2095
  5163   5   1556   1557   2095   2096
  5164   6   1556   1557   2095   2097
  5165   6   1556   1557   2095   2098
  5166   5   1558   1557   2095   2096
  5167   6   1558   1557   2095   2097
  5168   6   1558   1557   2095   2098
  5169   1   1557   1558   1559   1560
  5170   2   1557   1558   1559   1584
  5171   2   1560   1559   1558   1583
  5172   7   1583   1558   1559   1584
  5173   8   1558   1559   1560   1542
  5174   1   1558   1559   1560   1555
  5175   9   1584   1559   1560   1542
  5176   2   1555   1560   1559   1584
  5177   1   2310   1585   1586   1587
  5178   2   2310   1585   1586   1591
  5179   3   1587   1586   1585   2113
  5180   4   1591   1586   1585   2113
  5181   1   1586   1585   2310   2309
  5182   2   1586   1585   2310   2314
  5183   3   2309   2310   1585   2113
  5184   4   2314   2310   1585   2113
  5185   5   1586   1585   2113   2114
  5186   6   1586   1585   2113   2835
  5187   6   1586   1585   2113   2116
  5188   5   2310   1585   2113   2114
  5189   6   2310   1585   2113   2835
  5190   6   2310   1585   2113   2116
  5191   1   1585   1586   1587   1588
  5192   2   1585   1586   1587   1592
  5193   2   1588   1587   1586   1591
  5194   7   1591   1586   1587   1592
  5195   1   1586   1587   1588   2309
  5196   8   1586   1587   1588   1601
  5197   2   2309   1588   1587   1592
  5198   9   1592   1587   1588   1601
  5199   1   1587   1588   2309   2310
  5200   2   1587   1588   2309   2313
  5201   8   2310   2309   1588   1601
  5202   9   2313   2309   1588   1601
  5203  10   1587   1588   1601    156
  5204  10   1587   1588   1601   1602
  5205  10   1587   1588   1601   2333
  5206  10   2309   1588   1601    156
  5207  10   2309   1588   1601   1602
  5208  10   2309   1588   1601   2333
  5209   1   1590   1589   2308   2307
  5210   8   1590   1589   2308   2321
  5211   2   2307   2308   1589   1593
  5212   9   1593   1589   2308   2321
  5213   1   2308   1589   1590   2305
  5214   2   2308   1589   1590   1594
  5215   2   2305   1590   1589   1593
  5216   7   1593   1589   1590   1594
  5217   1   1589   1590   2305   2306
  5218   3   1589   1590   2305   2833
  5219   2   2306   2305   1590   1594
  5220   4   1594   1590   2305   2833
  5221   1   1600   1595   2316   2317
  5222   8   1600   1595   2316    881
  5223   2   2317   2316   1595   1633
  5224   9   1633   1595   2316    881
  5225   1   2316   1595   1600   2319
  5226   2   2316   1595   1600   1636
  5227   2   2319   1600   1595   1633
  5228   7   1633   1595   1600   1636
  5229   1   1597   1596   2315   2320
  5230   2   1597   1596   2315   2353
  5231   8   2320   2315   1596    161
  5232   9   2353   2315   1596    161
  5233   1   2315   1596   1597   1598
  5234   2   2315   1596   1597   1634
  5235   8   1598   1597   1596    161
  5236   9   1634   1597   1596    161
  5237   1   1596   1597   1598   1599
  5238   2   1596   1597   1598   1635
  5239   2   1599   1598   1597   1634
  5240   7   1634   1597   1598   1635
  5241   1   1597   1598   1599   2320
  5242   3   1597   1598   1599   2120
  5243   2   2320   1599   1598   1635
  5244   4   1635   1598   1599   2120
  5245   1   1598   1599   2320   2315
  5246   2   1598   1599   2320   2356
  5247   3   2315   2320   1599   2120
  5248   4   2356   2320   1599   2120
  5249   5   1598   1599   2120   2119
  5250   6   1598   1599   2120   2843
  5251   6   1598   1599   2120   2124
  5252   5   2320   1599   2120   2119
  5253   6   2320   1599   2120   2843
  5254   6   2320   1599   2120   2124
  5255   1   1595   1600   2319   2318
  5256   3   1595   1600   2319   2840
  5257   2   2318   2319   1600   1636
  5258   4   1636   1600   2319   2840
  5259  10   1603   1602   1601   1588
  5260  10   1607   1602   1601   1588
  5261  10   1603   1602   1601    156
  5262  10   1607   1602   1601    156
  5263  10   1603   1602   1601   2333
  5264  10   1607   1602   1601   2333
  5265  10   2328   2333   1601   1588
  5266  10   2332   2333   1601   1588
  5267  10   2328   2333   1601    156
  5268  10   2332   2333   1601    156
  5269  10   2328   2333   1601   1602
  5270  10   2332   2333   1601   1602
  5271   8   1604   1603   1602   1601
  5272   9   1637   1603   1602   1601
  5273   1   1607   1602   1603   1604
  5274   2   1607   1602   1603   1637
  5275   8   1606   1607   1602   1601
  5276   9   1640   1607   1602   1601
  5277   1   1603   1602   1607   1606
  5278   2   1603   1602   1607   1640
  5279   1   1602   1603   1604   1605
  5280   2   1602   1603   1604   1638
  5281   2   1605   1604   1603   1637
  5282   7   1637   1603   1604   1638
  5283   1   1603   1604   1605   1606
  5284   3   1603   1604   1605   2077
  5285   2   1606   1605   1604   1638
  5286   4   1638   1604   1605   2077
  5287   1   1604   1605   1606   1607
  5288   2   1604   1605   1606   1639
  5289   3   1607   1606   1605   2077
  5290   4   1639   1606   1605   2077
  5291   5   1604   1605   2077   2078
  5292   6   1604   1605   2077   2079
  5293   6   1604   1605   2077   2080
  5294   5   1606   1605   2077   2078
  5295   6   1606   1605   2077   2079
  5296   6   1606   1605   2077   2080
  5297   1   1605   1606   1607   1602
  5298   2   1605   1606   1607   1640
  5299   2   1602   1607   1606   1639
  5300   7   1639   1606   1607   1640
  5301   1   1613   1608   1609   1610
  5302   2   1613   1608   1609   1642
  5303   2   1610   1609   1608   1641
  5304   7   1641   1608   1609   1642
  5305   8   1609   1608   1613   2321
  5306   1   1609   1608   1613   1612
  5307   9   1641   1608   1613   2321
  5308   2   1612   1613   1608   1641
  5309   1   1608   1609   1610   1611
  5310   8   1608   1609   1610   1614
  5311   2   1611   1610   1609   1642
  5312   9   1642   1609   1610   1614
  5313   1   1609   1610   1611   1612
  5314   2   1609   1610   1611   1643
  5315   8   1612   1611   1610   1614
  5316   9   1643   1611   1610   1614
  5317  10   1609   1610   1614   1618
  5318  10   1609   1610   1614   1621
  5319  10   1609   1610   1614   1632
  5320  10   1611   1610   1614   1618
  5321  10   1611   1610   1614   1621
  5322  10   1611   1610   1614   1632
  5323   1   1610   1611   1612   1613
  5324   2   1610   1611   1612   2364
  5325   2   1613   1612   1611   1643
  5326   7   1643   1611   1612   2364
  5327   1   1611   1612   1613   1608
  5328   8   1611   1612   1613   2321
  5329   2   1608   1613   1612   2364
  5330   9   2364   1612   1613   2321
  5331  10   1608   1613   2321   2308
  5332  10   1608   1613   2321    876
  5333  10   1608   1613   2321   2322
  5334  10   1612   1613   2321   2308
  5335  10   1612   1613   2321    876
  5336  10   1612   1613   2321   2322
  5337  10   1617   1618   1614   1610
  5338  10   1619   1618   1614   1610
  5339  10   1617   1618   1614   1621
  5340  10   1619   1618   1614   1621
  5341  10   1617   1618   1614   1632
  5342  10   1619   1618   1614   1632
  5343  10   1622   1621   1614   1610
  5344  10   1626   1621   1614   1610
  5345  10   1622   1621   1614   1618
  5346  10   1626   1621   1614   1618
  5347  10   1622   1621   1614   1632
  5348  10   1626   1621   1614   1632
  5349  10   1631   1632   1614   1610
  5350  10   1627   1632   1614   1610
  5351  10   1631   1632   1614   1618
  5352  10   1627   1632   1614   1618
  5353  10   1631   1632   1614   1621
  5354  10   1627   1632   1614   1621
  5355   1   1620   1615   1616   1617
  5356   2   1620   1615   1616   1645
  5357   3   1617   1616   1615   2089
  5358   4   1645   1616   1615   2089
  5359   1   1616   1615   1620   1619
  5360   2   1616   1615   1620   1648
  5361   3   1619   1620   1615   2089
  5362   4   1648   1620   1615   2089
  5363   5   1616   1615   2089   2090
  5364   6   1616   1615   2089   2091
  5365   6   1616   1615   2089   2092
  5366   5   1620   1615   2089   2090
  5367   6   1620   1615   2089   2091
  5368   6   1620   1615   2089   2092
  5369   1   1615   1616   1617   1618
  5370   2   1615   1616   1617   1646
  5371   2   1618   1617   1616   1645
  5372   7   1645   1616   1617   1646
  5373   8   1616   1617   1618   1614
  5374   1   1616   1617   1618   1619
  5375   9   1646   1617   1618   1614
  5376   2   1619   1618   1617   1646
  5377   8   1620   1619   1618   1614
  5378   9   1647   1619   1618   1614
  5379   1   1617   1618   1619   1620
  5380   2   1617   1618   1619   1647
  5381   1   1618   1619   1620   1615
  5382   2   1618   1619   1620   1648
  5383   2   1615   1620   1619   1647
  5384   7   1647   1619   1620   1648
  5385   8   1623   1622   1621   1614
  5386   9   1649   1622   1621   1614
  5387   1   1626   1621   1622   1623
  5388   2   1626   1621   1622   1649
  5389   8   2345   1626   1621   1614
  5390   9   1652   1626   1621   1614
  5391   1   1622   1621   1626   2345
  5392   2   1622   1621   1626   1652
  5393   1   1621   1622   1623   1624
  5394   2   1621   1622   1623   1650
  5395   2   1624   1623   1622   1649
  5396   7   1649   1622   1623   1650
  5397   1   1622   1623   1624   2345
  5398   3   1622   1623   1624   2083
  5399   2   2345   1624   1623   1650
  5400   4   1650   1623   1624   2083
  5401   1   1623   1624   2345   1626
  5402   2   1623   1624   2345   2371
  5403   3   1626   2345   1624   2083
  5404   4   2371   2345   1624   2083
  5405   5   1623   1624   2083   2084
  5406   6   1623   1624   2083   2085
  5407   6   1623   1624   2083   2806
  5408   5   2345   1624   2083   2084
  5409   6   2345   1624   2083   2085
  5410   6   2345   1624   2083   2806
  5411   1   2346   1625   2344   2343
  5412   3   2346   1625   2344   2803
  5413   2   2343   2344   1625   1651
  5414   4   1651   1625   2344   2803
  5415   1   2344   1625   2346   2341
  5416   2   2344   1625   2346   2372
  5417   2   2341   2346   1625   1651
  5418   7   1651   1625   2346   2372
  5419   1   1621   1626   2345   1624
  5420   2   1621   1626   2345   2371
  5421   2   1624   2345   1626   1652
  5422   7   1652   1626   2345   2371
  5423   1   1632   1627   1628   1629
  5424   2   1632   1627   1628   1654
  5425   2   1629   1628   1627   1653
  5426   7   1653   1627   1628   1654
  5427   1   1628   1627   1632   1631
  5428   8   1628   1627   1632   1614
  5429   2   1631   1632   1627   1653
  5430   9   1653   1627   1632   1614
  5431   1   1627   1628   1629   1630
  5432   3   1627   1628   1629   2072
  5433   2   1630   1629   1628   1654
  5434   4   1654   1628   1629   2072
  5435   1   1628   1629   1630   1631
  5436   2   1628   1629   1630   1655
  5437   3   1631   1630   1629   2072
  5438   4   1655   1630   1629   2072
  5439   5   1628   1629   2072   2071
  5440   6   1628   1629   2072   2075
  5441   6   1628   1629   2072   2076
  5442   5   1630   1629   2072   2071
  5443   6   1630   1629   2072   2075
  5444   6   1630   1629   2072   2076
  5445   1   1629   1630   1631   1632
  5446   2   1629   1630   1631   1656
  5447   2   1632   1631   1630   1655
  5448   7   1655   1630   1631   1656
  5449   1   1630   1631   1632   1627
  5450   8   1630   1631   1632   1614
  5451   2   1627   1632   1631   1656
  5452   9   1656   1631   1632   1614
  5453   1   1662   1657   1658   1659
  5454   2   1662   1657   1658   1663
  5455   3   1659   1658   1657   2150
  5456   4   1663   1658   1657   2150
  5457   1   1658   1657   1662   1661
  5458   2   1658   1657   1662   1666
  5459   3   1661   1662   1657   2150
  5460   4   1666   1662   1657   2150
  5461   5   1658   1657   2150   2149
  5462   6   1658   1657   2150   2153
  5463   6   1658   1657   2150   2154
  5464   5   1662   1657   2150   2149
  5465   6   1662   1657   2150   2153
  5466   6   1662   1657   2150   2154
  5467   1   1657   1658   1659   1660
  5468   2   1657   1658   1659   1664
  5469   2   1660   1659   1658   1663
  5470   7   1663   1658   1659   1664
  5471   1   1658   1659   1660   1661
  5472   8   1658   1659   1660   1673
  5473   2   1661   1660   1659   1664
  5474   9   1664   1659   1660   1673
  5475   1   1659   1660   1661   1662
  5476   2   1659   1660   1661   1665
  5477   8   1662   1661   1660   1673
  5478   9   1665   1661   1660   1673
  5479  10   1659   1660   1673   1668
  5480  10   1659   1660   1673   1674
  5481  10   1659   1660   1673   1685
  5482  10   1661   1660   1673   1668
  5483  10   1661   1660   1673   1674
  5484  10   1661   1660   1673   1685
  5485   1   1660   1661   1662   1657
  5486   2   1660   1661   1662   1666
  5487   2   1657   1662   1661   1665
  5488   7   1665   1661   1662   1666
  5489   1   1672   1667   1668   1669
  5490   8   1672   1667   1668   1673
  5491   2   1669   1668   1667   1705
  5492   9   1705   1667   1668   1673
  5493   1   1668   1667   1672   1671
  5494   2   1668   1667   1672   1708
  5495   2   1671   1672   1667   1705
  5496   7   1705   1667   1672   1708
  5497   1   1667   1668   1669   1670
  5498   2   1667   1668   1669   1706
  5499   8   1670   1669   1668   1673
  5500   9   1706   1669   1668   1673
  5501  10   1667   1668   1673   1660
  5502  10   1667   1668   1673   1674
  5503  10   1667   1668   1673   1685
  5504  10   1669   1668   1673   1660
  5505  10   1669   1668   1673   1674
  5506  10   1669   1668   1673   1685
  5507   1   1668   1669   1670   1671
  5508   2   1668   1669   1670   1707
  5509   2   1671   1670   1669   1706
  5510   7   1706   1669   1670   1707
  5511   1   1669   1670   1671   1672
  5512   3   1669   1670   1671   2144
  5513   2   1672   1671   1670   1707
  5514   4   1707   1670   1671   2144
  5515   1   1670   1671   1672   1667
  5516   2   1670   1671   1672   1708
  5517   3   1667   1672   1671   2144
  5518   4   1708   1672   1671   2144
  5519   5   1670   1671   2144   2143
  5520   6   1670   1671   2144   2147
  5521   6   1670   1671   2144   2148
  5522   5   1672   1671   2144   2143
  5523   6   1672   1671   2144   2147
  5524   6   1672   1671   2144   2148
  5525  10   1675   1674   1673   1660
  5526  10   1679   1674   1673   1660
  5527  10   1675   1674   1673   1668
  5528  10   1679   1674   1673   1668
  5529  10   1675   1674   1673   1685
  5530  10   1679   1674   1673   1685
  5531  10   1684   1685   1673   1660
  5532  10   2400   1685   1673   1660
  5533  10   1684   1685   1673   1668
  5534  10   2400   1685   1673   1668
  5535  10   1684   1685   1673   1674
  5536  10   2400   1685   1673   1674
  5537   8   1676   1675   1674   1673
  5538   9   1709   1675   1674   1673
  5539   1   1679   1674   1675   1676
  5540   2   1679   1674   1675   1709
  5541   8   1678   1679   1674   1673
  5542   9   1712   1679   1674   1673
  5543   1   1675   1674   1679   1678
  5544   2   1675   1674   1679   1712
  5545   1   1674   1675   1676   1677
  5546   2   1674   1675   1676    270
  5547   2   1677   1676   1675   1709
  5548   7   1709   1675   1676    270
  5549   1   1675   1676   1677   1678
  5550   3   1675   1676   1677   2059
  5551   2   1678   1677   1676    270
  5552   4    270   1676   1677   2059
  5553   1   1676   1677   1678   1679
  5554   2   1676   1677   1678   1711
  5555   3   1679   1678   1677   2059
  5556   4   1711   1678   1677   2059
  5557   5   1676   1677   2059    620
  5558   6   1676   1677   2059   2061
  5559   6   1676   1677   2059   2062
  5560   5   1678   1677   2059    620
  5561   6   1678   1677   2059   2061
  5562   6   1678   1677   2059   2062
  5563   1   1677   1678   1679   1674
  5564   2   1677   1678   1679   1712
  5565   2   1674   1679   1678   1711
  5566   7   1711   1678   1679   1712
  5567   1   2405   1680   1681   1682
  5568   2   2405   1680   1681   1714
  5569   2   1682   1681   1680   1713
  5570   7   1713   1680   1681   1714
  5571   1   1681   1680   2405   2404
  5572   8   1681   1680   2405   2393
  5573   2   2404   2405   1680   1713
  5574   9   1713   1680   2405   2393
  5575   1   1680   1681   1682   1683
  5576   8   1680   1681   1682   1686
  5577   2   1683   1682   1681   1714
  5578   9   1714   1681   1682   1686
  5579   1   1681   1682   1683   2404
  5580   2   1681   1682   1683   1715
  5581   8   2404   1683   1682   1686
  5582   9   1715   1683   1682   1686
  5583  10   1681   1682   1686   1690
  5584  10   1681   1682   1686   1693
  5585  10   1681   1682   1686   1704
  5586  10   1683   1682   1686   1690
  5587  10   1683   1682   1686   1693
  5588  10   1683   1682   1686   1704
  5589   1   1682   1683   2404   2405
  5590   2   1682   1683   2404   2436
  5591   2   2405   2404   1683   1715
  5592   7   1715   1683   2404   2436
  5593   1   1685   1684   2403   2402
  5594   2   1685   1684   2403   2435
  5595   2   2402   2403   1684   1716
  5596   7   1716   1684   2403   2435
  5597   1   2403   1684   1685   2400
  5598   8   2403   1684   1685   1673
  5599   2   2400   1685   1684   1716
  5600   9   1716   1684   1685   1673
  5601   1   1684   1685   2400   2401
  5602   2   1684   1685   2400   2433
  5603   8   2401   2400   1685   1673
  5604   9   2433   2400   1685   1673
  5605  10   1689   1690   1686   1682
  5606  10   1691   1690   1686   1682
  5607  10   1689   1690   1686   1693
  5608  10   1691   1690   1686   1693
  5609  10   1689   1690   1686   1704
  5610  10   1691   1690   1686   1704
  5611  10   1694   1693   1686   1682
  5612  10   1698   1693   1686   1682
  5613  10   1694   1693   1686   1690
  5614  10   1698   1693   1686   1690
  5615  10   1694   1693   1686   1704
  5616  10   1698   1693   1686   1704
  5617  10   1703   1704   1686   1682
  5618  10   1699   1704   1686   1682
  5619  10   1703   1704   1686   1690
  5620  10   1699   1704   1686   1690
  5621  10   1703   1704   1686   1693
  5622  10   1699   1704   1686   1693
  5623   1   1692   1687   1688   1689
  5624   2   1692   1687   1688   1717
  5625   3   1689   1688   1687   2090
  5626   4   1717   1688   1687   2090
  5627   1   1688   1687   1692   1691
  5628   2   1688   1687   1692   1720
  5629   3   1691   1692   1687   2090
  5630   4   1720   1692   1687   2090
  5631   5   1688   1687   2090   2089
  5632   6   1688   1687   2090   2093
  5633   6   1688   1687   2090   2094
  5634   5   1692   1687   2090   2089
  5635   6   1692   1687   2090   2093
  5636   6   1692   1687   2090   2094
  5637   1   1687   1688   1689   1690
  5638   2   1687   1688   1689   1718
  5639   2   1690   1689   1688   1717
  5640   7   1717   1688   1689   1718
  5641   8   1688   1689   1690   1686
  5642   1   1688   1689   1690   1691
  5643   9   1718   1689   1690   1686
  5644   2   1691   1690   1689   1718
  5645   1   1689   1690   1691   1692
  5646   2   1689   1690   1691   1719
  5647   8   1692   1691   1690   1686
  5648   9   1719   1691   1690   1686
  5649   1   1690   1691   1692   1687
  5650   2   1690   1691   1692   1720
  5651   2   1687   1692   1691   1719
  5652   7   1719   1691   1692   1720
  5653   8   1695   1694   1693   1686
  5654   9    281   1694   1693   1686
  5655   1   1698   1693   1694   1695
  5656   2   1698   1693   1694    281
  5657   8   1697   1698   1693   1686
  5658   9   1724   1698   1693   1686
  5659   1   1694   1693   1698   1697
  5660   2   1694   1693   1698   1724
  5661   1   1693   1694   1695   1696
  5662   2   1693   1694   1695    282
  5663   2   1696   1695   1694    281
  5664   7    281   1694   1695    282
  5665   1   1694   1695   1696   1697
  5666   3   1694   1695   1696   2065
  5667   2   1697   1696   1695    282
  5668   4    282   1695   1696   2065
  5669   1   1695   1696   1697   1698
  5670   2   1695   1696   1697   1723
  5671   3   1698   1697   1696   2065
  5672   4   1723   1697   1696   2065
  5673   5   1695   1696   2065   2066
  5674   6   1695   1696   2065    627
  5675   6   1695   1696   2065   2068
  5676   5   1697   1696   2065   2066
  5677   6   1697   1696   2065    627
  5678   6   1697   1696   2065   2068
  5679   1   1696   1697   1698   1693
  5680   2   1696   1697   1698   1724
  5681   2   1693   1698   1697   1723
  5682   7   1723   1697   1698   1724
  5683   1   1704   1699   1700    261
  5684   2   1704   1699   1700   1726
  5685   2    261   1700   1699   1725
  5686   7   1725   1699   1700   1726
  5687   1   1700   1699   1704   1703
  5688   8   1700   1699   1704   1686
  5689   2   1703   1704   1699   1725
  5690   9   1725   1699   1704   1686
  5691   1    260   1701   1702    263
  5692   2    260   1701   1702   1727
  5693   3    263   1702   1701   2053
  5694   4   1727   1702   1701   2053
  5695   5    260   1701   2053   2054
  5696   6    260   1701   2053   2055
  5697   6    260   1701   2053   2056
  5698   5   1702   1701   2053   2054
  5699   6   1702   1701   2053   2055
  5700   6   1702   1701   2053   2056
  5701   1    262   1703   1704   1699
  5702   8    262   1703   1704   1686
  5703   2   1699   1704   1703   1728
  5704   9   1728   1703   1704   1686
  5705   1   1734   1729   1730   1731
  5706   2   1734   1729   1730   2455
  5707   3   1731   1730   1729   2767
  5708   4   2455   1730   1729   2767
  5709   1   1730   1729   1734   1733
  5710   2   1730   1729   1734   1738
  5711   3   1733   1734   1729   2767
  5712   4   1738   1734   1729   2767
  5713   5   1730   1729   2767   2048
  5714   6   1730   1729   2767   2769
  5715   6   1730   1729   2767   2770
  5716   5   1734   1729   2767   2048
  5717   6   1734   1729   2767   2769
  5718   6   1734   1729   2767   2770
  5719   1   1729   1730   1731   1732
  5720   2   1729   1730   1731   1736
  5721   2   1732   1731   1730   2455
  5722   7   2455   1730   1731   1736
  5723   1   1730   1731   1732   1733
  5724   8   1730   1731   1732   1745
  5725   2   1733   1732   1731   1736
  5726   9   1736   1731   1732   1745
  5727   1   1731   1732   1733   1734
  5728   2   1731   1732   1733   1737
  5729   8   1734   1733   1732   1745
  5730   9   1737   1733   1732   1745
  5731  10   1731   1732   1745   1740
  5732  10   1731   1732   1745   1746
  5733  10   1731   1732   1745   1757
  5734  10   1733   1732   1745   1740
  5735  10   1733   1732   1745   1746
  5736  10   1733   1732   1745   1757
  5737   1   1732   1733   1734   1729
  5738   2   1732   1733   1734   1738
  5739   2   1729   1734   1733   1737
  5740   7   1737   1733   1734   1738
  5741   1   1744   1739   1740   1741
  5742   8   1744   1739   1740   1745
  5743   2   1741   1740   1739   1777
  5744   9   1777   1739   1740   1745
  5745   1   1740   1739   1744   1743
  5746   2   1740   1739   1744   1780
  5747   2   1743   1744   1739   1777
  5748   7   1777   1739   1744   1780
  5749   1   1739   1740   1741   1742
  5750   2   1739   1740   1741   1778
  5751   8   1742   1741   1740   1745
  5752   9   1778   1741   1740   1745
  5753  10   1739   1740   1745   1732
  5754  10   1739   1740   1745   1746
  5755  10   1739   1740   1745   1757
  5756  10   1741   1740   1745   1732
  5757  10   1741   1740   1745   1746
  5758  10   1741   1740   1745   1757
  5759   1   1740   1741   1742   1743
  5760   2   1740   1741   1742   1779
  5761   2   1743   1742   1741   1778
  5762   7   1778   1741   1742   1779
  5763   1   1741   1742   1743   1744
  5764   3   1741   1742   1743    626
  5765   2   1744   1743   1742   1779
  5766   4   1779   1742   1743    626
  5767   1   1742   1743   1744   1739
  5768   2   1742   1743   1744   1780
  5769   3   1739   1744   1743    626
  5770   4   1780   1744   1743    626
  5771  10   1747   1746   1745   1732
  5772  10   1751   1746   1745   1732
  5773  10   1747   1746   1745   1740
  5774  10   1751   1746   1745   1740
  5775  10   1747   1746   1745   1757
  5776  10   1751   1746   1745   1757
  5777  10   1752   1757   1745   1732
  5778  10   1756   1757   1745   1732
  5779  10   1752   1757   1745   1740
  5780  10   1756   1757   1745   1740
  5781  10   1752   1757   1745   1746
  5782  10   1756   1757   1745   1746
  5783   8   1748   1747   1746   1745
  5784   9   1781   1747   1746   1745
  5785   1   1751   1746   1747   1748
  5786   2   1751   1746   1747   1781
  5787   8   1750   1751   1746   1745
  5788   9   1784   1751   1746   1745
  5789   1   1747   1746   1751   1750
  5790   2   1747   1746   1751   1784
  5791   1   1746   1747   1748   1749
  5792   2   1746   1747   1748   1782
  5793   2   1749   1748   1747   1781
  5794   7   1781   1747   1748   1782
  5795   1   1747   1748   1749   1750
  5796   3   1747   1748   1749   2102
  5797   2   1750   1749   1748   1782
  5798   4   1782   1748   1749   2102
  5799   1   1748   1749   1750   1751
  5800   2   1748   1749   1750   1783
  5801   3   1751   1750   1749   2102
  5802   4   1783   1750   1749   2102
  5803   5   1748   1749   2102   2101
  5804   6   1748   1749   2102   2105
  5805   6   1748   1749   2102   2106
  5806   5   1750   1749   2102   2101
  5807   6   1750   1749   2102   2105
  5808   6   1750   1749   2102   2106
  5809   1   1749   1750   1751   1746
  5810   2   1749   1750   1751   1784
  5811   2   1746   1751   1750   1783
  5812   7   1783   1750   1751   1784
  5813   1   1757   1752   1753   1754
  5814   2   1757   1752   1753   1786
  5815   2   1754   1753   1752   1785
  5816   7   1785   1752   1753   1786
  5817   8   1753   1752   1757   1745
  5818   1   1753   1752   1757   1756
  5819   9   1785   1752   1757   1745
  5820   2   1756   1757   1752   1785
  5821   1   1752   1753   1754   1755
  5822   8   1752   1753   1754   1758
  5823   2   1755   1754   1753   1786
  5824   9   1786   1753   1754   1758
  5825   1   1753   1754   1755   1756
  5826   2   1753   1754   1755   1787
  5827   8   1756   1755   1754   1758
  5828   9   1787   1755   1754   1758
  5829  10   1753   1754   1758   1762
  5830  10   1753   1754   1758   1765
  5831  10   1753   1754   1758   1776
  5832  10   1755   1754   1758   1762
  5833  10   1755   1754   1758   1765
  5834  10   1755   1754   1758   1776
  5835   1   1754   1755   1756   1757
  5836   2   1754   1755   1756   1788
  5837   2   1757   1756   1755   1787
  5838   7   1787   1755   1756   1788
  5839   1   1755   1756   1757   1752
  5840   8   1755   1756   1757   1745
  5841   2   1752   1757   1756   1788
  5842   9   1788   1756   1757   1745
  5843  10   1761   1762   1758   1754
  5844  10   1763   1762   1758   1754
  5845  10   1761   1762   1758   1765
  5846  10   1763   1762   1758   1765
  5847  10   1761   1762   1758   1776
  5848  10   1763   1762   1758   1776
  5849  10   1766   1765   1758   1754
  5850  10   1770   1765   1758   1754
  5851  10   1766   1765   1758   1762
  5852  10   1770   1765   1758   1762
  5853  10   1766   1765   1758   1776
  5854  10   1770   1765   1758   1776
  5855  10   1775   1776   1758   1754
  5856  10   1771   1776   1758   1754
  5857  10   1775   1776   1758   1762
  5858  10   1771   1776   1758   1762
  5859  10   1775   1776   1758   1765
  5860  10   1771   1776   1758   1765
  5861   1   1764   1759   1760   1761
  5862   2   1764   1759   1760   1789
  5863   3   1761   1760   1759   2042
  5864   4   1789   1760   1759   2042
  5865   1   1760   1759   1764   1763
  5866   2   1760   1759   1764   1792
  5867   3   1763   1764   1759   2042
  5868   4   1792   1764   1759   2042
  5869   5   1760   1759   2042   2041
  5870   6   1760   1759   2042   2045
  5871   6   1760   1759   2042   2046
  5872   5   1764   1759   2042   2041
  5873   6   1764   1759   2042   2045
  5874   6   1764   1759   2042   2046
  5875   1   1759   1760   1761   1762
  5876   2   1759   1760   1761   1790
  5877   2   1762   1761   1760   1789
  5878   7   1789   1760   1761   1790
  5879   8   1760   1761   1762   1758
  5880   1   1760   1761   1762   1763
  5881   9   1790   1761   1762   1758
  5882   2   1763   1762   1761   1790
  5883   8   1764   1763   1762   1758
  5884   9   1791   1763   1762   1758
  5885   1   1761   1762   1763   1764
  5886   2   1761   1762   1763   1791
  5887   1   1762   1763   1764   1759
  5888   2   1762   1763   1764   1792
  5889   2   1759   1764   1763   1791
  5890   7   1791   1763   1764   1792
  5891   8   1767   1766   1765   1758
  5892   9   1793   1766   1765   1758
  5893   1   1770   1765   1766   1767
  5894   2   1770   1765   1766   1793
  5895   8   1769   1770   1765   1758
  5896   9   1796   1770   1765   1758
  5897   1   1766   1765   1770   1769
  5898   2   1766   1765   1770   1796
  5899   1   1765   1766   1767   1768
  5900   2   1765   1766   1767   1794
  5901   2   1768   1767   1766   1793
  5902   7   1793   1766   1767   1794
  5903   1   1766   1767   1768   1769
  5904   3   1766   1767   1768   2035
  5905   2   1769   1768   1767   1794
  5906   4   1794   1767   1768   2035
  5907   1   1767   1768   1769   1770
  5908   2   1767   1768   1769   1795
  5909   3   1770   1769   1768   2035
  5910   4   1795   1769   1768   2035
  5911   5   1767   1768   2035   2036
  5912   6   1767   1768   2035   2037
  5913   6   1767   1768   2035   2038
  5914   5   1769   1768   2035   2036
  5915   6   1769   1768   2035   2037
  5916   6   1769   1768   2035   2038
  5917   1   1768   1769   1770   1765
  5918   2   1768   1769   1770   1796
  5919   2   1765   1770   1769   1795
  5920   7   1795   1769   1770   1796
  5921   1   1776   1771   1772   1773
  5922   2   1776   1771   1772   1798
  5923   2   1773   1772   1771   1797
  5924   7   1797   1771   1772   1798
  5925   1   1772   1771   1776   1775
  5926   8   1772   1771   1776   1758
  5927   2   1775   1776   1771   1797
  5928   9   1797   1771   1776   1758
  5929   1   1771   1772   1773   1774
  5930   3   1771   1772   1773   2096
  5931   2   1774   1773   1772   1798
  5932   4   1798   1772   1773   2096
  5933   1   1772   1773   1774   1775
  5934   2   1772   1773   1774   1799
  5935   3   1775   1774   1773   2096
  5936   4   1799   1774   1773   2096
  5937   5   1772   1773   2096   2095
  5938   6   1772   1773   2096   2099
  5939   6   1772   1773   2096   2100
  5940   5   1774   1773   2096   2095
  5941   6   1774   1773   2096   2099
  5942   6   1774   1773   2096   2100
  5943   1   1773   1774   1775   1776
  5944   2   1773   1774   1775   1800
  5945   2   1776   1775   1774   1799
  5946   7   1799   1774   1775   1800
  5947   8   1774   1775   1776   1758
  5948   1   1774   1775   1776   1771
  5949   9   1800   1775   1776   1758
  5950   2   1771   1776   1775   1800
  5951   1   1806   1801   1802   1803
  5952   2   1806   1801   1802   2527
  5953   3   1803   1802   1801   2048
  5954   4   2527   1802   1801   2048
  5955   1   1802   1801   1806   1805
  5956   2   1802   1801   1806   1810
  5957   3   1805   1806   1801   2048
  5958   4   1810   1806   1801   2048
  5959   5   1802   1801   2048   2767
  5960   6   1802   1801   2048   2771
  5961   6   1802   1801   2048   2052
  5962   5   1806   1801   2048   2767
  5963   6   1806   1801   2048   2771
  5964   6   1806   1801   2048   2052
  5965   1   1801   1802   1803   1804
  5966   2   1801   1802   1803   1808
  5967   2   1804   1803   1802   2527
  5968   7   2527   1802   1803   1808
  5969   1   1802   1803   1804   1805
  5970   8   1802   1803   1804   1817
  5971   2   1805   1804   1803   1808
  5972   9   1808   1803   1804   1817
  5973   1   1803   1804   1805   1806
  5974   2   1803   1804   1805   1809
  5975   8   1806   1805   1804   1817
  5976   9   1809   1805   1804   1817
  5977  10   1803   1804   1817   1812
  5978  10   1803   1804   1817   1818
  5979  10   1803   1804   1817   1829
  5980  10   1805   1804   1817   1812
  5981  10   1805   1804   1817   1818
  5982  10   1805   1804   1817   1829
  5983   1   1804   1805   1806   1801
  5984   2   1804   1805   1806   1810
  5985   2   1801   1806   1805   1809
  5986   7   1809   1805   1806   1810
  5987   1   1816   1811   1812   1813
  5988   8   1816   1811   1812   1817
  5989   2   1813   1812   1811   1849
  5990   9   1849   1811   1812   1817
  5991   1   1812   1811   1816   1815
  5992   2   1812   1811   1816   1852
  5993   2   1815   1816   1811   1849
  5994   7   1849   1811   1816   1852
  5995   1   1811   1812   1813   1814
  5996   2   1811   1812   1813   1850
  5997   8   1814   1813   1812   1817
  5998   9   1850   1813   1812   1817
  5999  10   1811   1812   1817   1804
  6000  10   1811   1812   1817   1818
  6001  10   1811   1812   1817   1829
  6002  10   1813   1812   1817   1804
  6003  10   1813   1812   1817   1818
  6004  10   1813   1812   1817   1829
  6005   1   1812   1813   1814   1815
  6006   2   1812   1813   1814   1851
  6007   2   1815   1814   1813   1850
  6008   7   1850   1813   1814   1851
  6009   1   1813   1814   1815   1816
  6010   3   1813   1814   1815   2084
  6011   2   1816   1815   1814   1851
  6012   4   1851   1814   1815   2084
  6013   1   1814   1815   1816   1811
  6014   2   1814   1815   1816   1852
  6015   3   1811   1816   1815   2084
  6016   4   1852   1816   1815   2084
  6017   5   1814   1815   2084   2083
  6018   6   1814   1815   2084   2087
  6019   6   1814   1815   2084   2088
  6020   5   1816   1815   2084   2083
  6021   6   1816   1815   2084   2087
  6022   6   1816   1815   2084   2088
  6023  10   1819   1818   1817   1804
  6024  10   1823   1818   1817   1804
  6025  10   1819   1818   1817   1812
  6026  10   1823   1818   1817   1812
  6027  10   1819   1818   1817   1829
  6028  10   1823   1818   1817   1829
  6029  10   1824   1829   1817   1804
  6030  10   1828   1829   1817   1804
  6031  10   1824   1829   1817   1812
  6032  10   1828   1829   1817   1812
  6033  10   1824   1829   1817   1818
  6034  10   1828   1829   1817   1818
  6035   8   1820   1819   1818   1817
  6036   9   1853   1819   1818   1817
  6037   1   1823   1818   1819   1820
  6038   2   1823   1818   1819   1853
  6039   8   1822   1823   1818   1817
  6040   9   1856   1823   1818   1817
  6041   1   1819   1818   1823   1822
  6042   2   1819   1818   1823   1856
  6043   1   1818   1819   1820   1821
  6044   2   1818   1819   1820   1854
  6045   2   1821   1820   1819   1853
  6046   7   1853   1819   1820   1854
  6047   1   1819   1820   1821   1822
  6048   3   1819   1820   1821   2131
  6049   2   1822   1821   1820   1854
  6050   4   1854   1820   1821   2131
  6051   1   1820   1821   1822   1823
  6052   2   1820   1821   1822   1855
  6053   3   1823   1822   1821   2131
  6054   4   1855   1822   1821   2131
  6055   5   1820   1821   2131   2132
  6056   6   1820   1821   2131   2133
  6057   6   1820   1821   2131   2134
  6058   5   1822   1821   2131   2132
  6059   6   1822   1821   2131   2133
  6060   6   1822   1821   2131   2134
  6061   1   1821   1822   1823   1818
  6062   2   1821   1822   1823   1856
  6063   2   1818   1823   1822   1855
  6064   7   1855   1822   1823   1856
  6065   1   1829   1824   1825   1826
  6066   2   1829   1824   1825   1858
  6067   2   1826   1825   1824   1857
  6068   7   1857   1824   1825   1858
  6069   8   1825   1824   1829   1817
  6070   1   1825   1824   1829   1828
  6071   9   1857   1824   1829   1817
  6072   2   1828   1829   1824   1857
  6073   1   1824   1825   1826   1827
  6074   8   1824   1825   1826   1830
  6075   2   1827   1826   1825   1858
  6076   9   1858   1825   1826   1830
  6077   1   1825   1826   1827   1828
  6078   2   1825   1826   1827   1859
  6079   8   1828   1827   1826   1830
  6080   9   1859   1827   1826   1830
  6081  10   1825   1826   1830   1834
  6082  10   1825   1826   1830   1837
  6083  10   1825   1826   1830   1848
  6084  10   1827   1826   1830   1834
  6085  10   1827   1826   1830   1837
  6086  10   1827   1826   1830   1848
  6087   1   1826   1827   1828   1829
  6088   2   1826   1827   1828   1860
  6089   2   1829   1828   1827   1859
  6090   7   1859   1827   1828   1860
  6091   1   1827   1828   1829   1824
  6092   8   1827   1828   1829   1817
  6093   2   1824   1829   1828   1860
  6094   9   1860   1828   1829   1817
  6095  10   1833   1834   1830   1826
  6096  10   1835   1834   1830   1826
  6097  10   1833   1834   1830   1837
  6098  10   1835   1834   1830   1837
  6099  10   1833   1834   1830   1848
  6100  10   1835   1834   1830   1848
  6101  10   1838   1837   1830   1826
  6102  10   1842   1837   1830   1826
  6103  10   1838   1837   1830   1834
  6104  10   1842   1837   1830   1834
  6105  10   1838   1837   1830   1848
  6106  10   1842   1837   1830   1848
  6107  10   1847   1848   1830   1826
  6108  10   1843   1848   1830   1826
  6109  10   1847   1848   1830   1834
  6110  10   1843   1848   1830   1834
  6111  10   1847   1848   1830   1837
  6112  10   1843   1848   1830   1837
  6113   1   1836   1831   1832   1833
  6114   2   1836   1831   1832   1861
  6115   3   1833   1832   1831   2024
  6116   4   1861   1832   1831   2024
  6117   1   1832   1831   1836   1835
  6118   2   1832   1831   1836   1864
  6119   3   1835   1836   1831   2024
  6120   4   1864   1836   1831   2024
  6121   5   1832   1831   2024   2023
  6122   6   1832   1831   2024   2027
  6123   6   1832   1831   2024   2028
  6124   5   1836   1831   2024   2023
  6125   6   1836   1831   2024   2027
  6126   6   1836   1831   2024   2028
  6127   1   1831   1832   1833   1834
  6128   2   1831   1832   1833   1862
  6129   2   1834   1833   1832   1861
  6130   7   1861   1832   1833   1862
  6131   8   1832   1833   1834   1830
  6132   1   1832   1833   1834   1835
  6133   9   1862   1833   1834   1830
  6134   2   1835   1834   1833   1862
  6135   1   1833   1834   1835   1836
  6136   2   1833   1834   1835   1863
  6137   8   1836   1835   1834   1830
  6138   9   1863   1835   1834   1830
  6139   1   1834   1835   1836   1831
  6140   2   1834   1835   1836   1864
  6141   2   1831   1836   1835   1863
  6142   7   1863   1835   1836   1864
  6143   8   1839   1838   1837   1830
  6144   9   1865   1838   1837   1830
  6145   1   1842   1837   1838   1839
  6146   2   1842   1837   1838   1865
  6147   8   1841   1842   1837   1830
  6148   9   1868   1842   1837   1830
  6149   1   1838   1837   1842   1841
  6150   2   1838   1837   1842   1868
  6151   1   1837   1838   1839   1840
  6152   2   1837   1838   1839   1866
  6153   2   1840   1839   1838   1865
  6154   7   1865   1838   1839   1866
  6155   1   1838   1839   1840   1841
  6156   3   1838   1839   1840    590
  6157   2   1841   1840   1839   1866
  6158   4   1866   1839   1840    590
  6159   1   1839   1840   1841   1842
  6160   2   1839   1840   1841   1867
  6161   3   1842   1841   1840    590
  6162   4   1867   1841   1840    590
  6163   1   1840   1841   1842   1837
  6164   2   1840   1841   1842   1868
  6165   2   1837   1842   1841   1867
  6166   7   1867   1841   1842   1868
  6167   1   1848   1843   1844   1845
  6168   2   1848   1843   1844   1870
  6169   2   1845   1844   1843   1869
  6170   7   1869   1843   1844   1870
  6171   1   1844   1843   1848   1847
  6172   8   1844   1843   1848   1830
  6173   2   1847   1848   1843   1869
  6174   9   1869   1843   1848   1830
  6175   1   1843   1844   1845   1846
  6176   3   1843   1844   1845   2126
  6177   2   1846   1845   1844   1870
  6178   4   1870   1844   1845   2126
  6179   1   1844   1845   1846   1847
  6180   2   1844   1845   1846   1871
  6181   3   1847   1846   1845   2126
  6182   4   1871   1846   1845   2126
  6183   5   1844   1845   2126   2125
  6184   6   1844   1845   2126   2129
  6185   6   1844   1845   2126   2130
  6186   5   1846   1845   2126   2125
  6187   6   1846   1845   2126   2129
  6188   6   1846   1845   2126   2130
  6189   1   1845   1846   1847   1848
  6190   2   1845   1846   1847   1872
  6191   2   1848   1847   1846   1871
  6192   7   1871   1846   1847   1872
  6193   1   1846   1847   1848   1843
  6194   8   1846   1847   1848   1830
  6195   2   1843   1848   1847   1872
  6196   9   1872   1847   1848   1830
  6197   1   1878   1873   1874   1875
  6198   2   1878   1873   1874   1879
  6199   3   1875   1874   1873   2017
  6200   4   1879   1874   1873   2017
  6201   1   1874   1873   1878   1877
  6202   2   1874   1873   1878   1882
  6203   3   1877   1878   1873   2017
  6204   4   1882   1878   1873   2017
  6205   5   1874   1873   2017   2018
  6206   6   1874   1873   2017   2019
  6207   6   1874   1873   2017   2020
  6208   5   1878   1873   2017   2018
  6209   6   1878   1873   2017   2019
  6210   6   1878   1873   2017   2020
  6211   1   1873   1874   1875   1876
  6212   2   1873   1874   1875   1880
  6213   2   1876   1875   1874   1879
  6214   7   1879   1874   1875   1880
  6215   1   1874   1875   1876   1877
  6216   8   1874   1875   1876   1889
  6217   2   1877   1876   1875   1880
  6218   9   1880   1875   1876   1889
  6219   1   1875   1876   1877   1878
  6220   2   1875   1876   1877   1881
  6221   8   1878   1877   1876   1889
  6222   9   1881   1877   1876   1889
  6223  10   1875   1876   1889    444
  6224  10   1875   1876   1889    450
  6225  10   1875   1876   1889   1901
  6226  10   1877   1876   1889    444
  6227  10   1877   1876   1889    450
  6228  10   1877   1876   1889   1901
  6229   1   1876   1877   1878   1873
  6230   2   1876   1877   1878   1882
  6231   2   1873   1878   1877   1881
  6232   7   1881   1877   1878   1882
  6233   1   1888   1883   1884   1885
  6234   8   1888   1883   1884    449
  6235   2   1885   1884   1883   1921
  6236   9   1921   1883   1884    449
  6237   1   1884   1883   1888   1887
  6238   2   1884   1883   1888   1924
  6239   2   1887   1888   1883   1921
  6240   7   1921   1883   1888   1924
  6241   1   1883   1884   1885   1886
  6242   2   1883   1884   1885   1922
  6243   8   1886   1885   1884    449
  6244   9   1922   1885   1884    449
  6245   1   1884   1885   1886   1887
  6246   2   1884   1885   1886   1923
  6247   2   1887   1886   1885   1922
  6248   7   1922   1885   1886   1923
  6249   1   1885   1886   1887   1888
  6250   3   1885   1886   1887   2137
  6251   2   1888   1887   1886   1923
  6252   4   1923   1886   1887   2137
  6253   1   1886   1887   1888   1883
  6254   2   1886   1887   1888   1924
  6255   3   1883   1888   1887   2137
  6256   4   1924   1888   1887   2137
  6257   5   1886   1887   2137   2138
  6258   6   1886   1887   2137   2139
  6259   6   1886   1887   2137   2140
  6260   5   1888   1887   2137   2138
  6261   6   1888   1887   2137   2139
  6262   6   1888   1887   2137   2140
  6263  10   1900   1901   1889    444
  6264  10   1896   1901   1889    444
  6265  10   1900   1901   1889   1876
  6266  10   1896   1901   1889   1876
  6267  10   1900   1901   1889    450
  6268  10   1896   1901   1889    450
  6269   8   1892   1891   1890    449
  6270   9   1925   1891   1890    449
  6271   1    455   1890   1891   1892
  6272   2    455   1890   1891   1925
  6273   1   1890   1891   1892   1893
  6274   2   1890   1891   1892   1926
  6275   2   1893   1892   1891   1925
  6276   7   1925   1891   1892   1926
  6277   1   1891   1892   1893    454
  6278   3   1891   1892   1893   2078
  6279   2    454   1893   1892   1926
  6280   4   1926   1892   1893   2078
  6281   5   1892   1893   2078   2077
  6282   6   1892   1893   2078   2081
  6283   6   1892   1893   2078   2082
  6284   5    454   1893   2078   2077
  6285   6    454   1893   2078   2081
  6286   6    454   1893   2078   2082
  6287   1    453   1894   1895    450
  6288   2    453   1894   1895   1928
  6289   2    450   1895   1894   1927
  6290   7   1927   1894   1895   1928
  6291   1   1901   1896   1897   1898
  6292   2   1901   1896   1897    490
  6293   2   1898   1897   1896    489
  6294   7    489   1896   1897    490
  6295   1   1897   1896   1901   1900
  6296   8   1897   1896   1901   1889
  6297   2   1900   1901   1896    489
  6298   9    489   1896   1901   1889
  6299   1   1896   1897   1898   1899
  6300   8   1896   1897   1898   1902
  6301   2   1899   1898   1897    490
  6302   9    490   1897   1898   1902
  6303   1   1897   1898   1899   1900
  6304   2   1897   1898   1899   1931
  6305   8   1900   1899   1898   1902
  6306   9   1931   1899   1898   1902
  6307  10   1897   1898   1902   1906
  6308  10   1897   1898   1902   1909
  6309  10   1897   1898   1902    480
  6310  10   1899   1898   1902   1906
  6311  10   1899   1898   1902   1909
  6312  10   1899   1898   1902    480
  6313   1   1898   1899   1900   1901
  6314   2   1898   1899   1900   1932
  6315   2   1901   1900   1899   1931
  6316   7   1931   1899   1900   1932
  6317   8   1899   1900   1901   1889
  6318   1   1899   1900   1901   1896
  6319   9   1932   1900   1901   1889
  6320   2   1896   1901   1900   1932
  6321  10   1905   1906   1902   1898
  6322  10    467   1906   1902   1898
  6323  10   1905   1906   1902   1909
  6324  10    467   1906   1902   1909
  6325  10   1905   1906   1902    480
  6326  10    467   1906   1902    480
  6327  10   1910   1909   1902   1898
  6328  10   1914   1909   1902   1898
  6329  10   1910   1909   1902   1906
  6330  10   1914   1909   1902   1906
  6331  10   1910   1909   1902    480
  6332  10   1914   1909   1902    480
  6333   1   1908   1903   1904    465
  6334   2   1908   1903   1904   1933
  6335   3    465   1904   1903   2036
  6336   4   1933   1904   1903   2036
  6337   1   1904   1903   1908   1907
  6338   2   1904   1903   1908   1936
  6339   3   1907   1908   1903   2036
  6340   4   1936   1908   1903   2036
  6341   5   1904   1903   2036   2035
  6342   6   1904   1903   2036   2039
  6343   6   1904   1903   2036   2040
  6344   5   1908   1903   2036   2035
  6345   6   1908   1903   2036   2039
  6346   6   1908   1903   2036   2040
  6347   8    464   1905   1906   1902
  6348   1    464   1905   1906    467
  6349   9   1934   1905   1906   1902
  6350   2    467   1906   1905   1934
  6351   1    466   1907   1908   1903
  6352   2    466   1907   1908   1936
  6353   2   1903   1908   1907   1935
  6354   7   1935   1907   1908   1936
  6355   8   1911   1910   1909   1902
  6356   9   1937   1910   1909   1902
  6357   1   1914   1909   1910   1911
  6358   2   1914   1909   1910   1937
  6359   8   1913   1914   1909   1902
  6360   9   1940   1914   1909   1902
  6361   1   1910   1909   1914   1913
  6362   2   1910   1909   1914   1940
  6363   1   1909   1910   1911   1912
  6364   2   1909   1910   1911   1938
  6365   2   1912   1911   1910   1937
  6366   7   1937   1910   1911   1938
  6367   1   1910   1911   1912   1913
  6368   3   1910   1911   1912   2041
  6369   2   1913   1912   1911   1938
  6370   4   1938   1911   1912   2041
  6371   1   1911   1912   1913   1914
  6372   2   1911   1912   1913   1939
  6373   3   1914   1913   1912   2041
  6374   4   1939   1913   1912   2041
  6375   5   1911   1912   2041   2042
  6376   6   1911   1912   2041   2043
  6377   6   1911   1912   2041   2044
  6378   5   1913   1912   2041   2042
  6379   6   1913   1912   2041   2043
  6380   6   1913   1912   2041   2044
  6381   1   1912   1913   1914   1909
  6382   2   1912   1913   1914   1940
  6383   2   1909   1914   1913   1939
  6384   7   1939   1913   1914   1940
  6385   1   1920   1915   1916   1917
  6386   2   1920   1915   1916   1942
  6387   2   1917   1916   1915    501
  6388   7    501   1915   1916   1942
  6389   1   1916   1915   1920   1919
  6390   8   1916   1915   1920    462
  6391   2   1919   1920   1915    501
  6392   9    501   1915   1920    462
  6393   1   1915   1916   1917   1918
  6394   3   1915   1916   1917   2071
  6395   2   1918   1917   1916   1942
  6396   4   1942   1916   1917   2071
  6397   1   1916   1917   1918   1919
  6398   2   1916   1917   1918   1943
  6399   3   1919   1918   1917   2071
  6400   4   1943   1918   1917   2071
  6401   5   1916   1917   2071   2072
  6402   6   1916   1917   2071   2073
  6403   6   1916   1917   2071   2074
  6404   5   1918   1917   2071   2072
  6405   6   1918   1917   2071   2073
  6406   6   1918   1917   2071   2074
  6407   1   1917   1918   1919   1920
  6408   2   1917   1918   1919   1944
  6409   2   1920   1919   1918   1943
  6410   7   1943   1918   1919   1944
  6411   1   1918   1919   1920   1915
  6412   8   1918   1919   1920    462
  6413   2   1915   1920   1919   1944
  6414   9   1944   1919   1920    462
  6415   1   1950   1945   1946   1947
  6416   2   1950   1945   1946   1951
  6417   3   1947   1946   1945   2018
  6418   4   1951   1946   1945   2018
  6419   1   1946   1945   1950    509
  6420   2   1946   1945   1950    514
  6421   3    509   1950   1945   2018
  6422   4    514   1950   1945   2018
  6423   5   1946   1945   2018   2017
  6424   6   1946   1945   2018   2021
  6425   6   1946   1945   2018   2022
  6426   5   1950   1945   2018   2017
  6427   6   1950   1945   2018   2021
  6428   6   1950   1945   2018   2022
  6429   1   1945   1946   1947   1948
  6430   2   1945   1946   1947   1952
  6431   2   1948   1947   1946   1951
  6432   7   1951   1946   1947   1952
  6433   1   1946   1947   1948    509
  6434   8   1946   1947   1948   1961
  6435   2    509   1948   1947   1952
  6436   9   1952   1947   1948   1961
  6437  10   1947   1948   1961   1956
  6438  10   1947   1948   1961   1962
  6439  10   1947   1948   1961    533
  6440  10    509   1948   1961   1956
  6441  10    509   1948   1961   1962
  6442  10    509   1948   1961    533
  6443   1   1960   1955   1956   1957
  6444   8   1960   1955   1956   1961
  6445   2   1957   1956   1955   1993
  6446   9   1993   1955   1956   1961
  6447   1   1956   1955   1960   1959
  6448   2   1956   1955   1960   1996
  6449   2   1959   1960   1955   1993
  6450   7   1993   1955   1960   1996
  6451   1   1955   1956   1957   1958
  6452   2   1955   1956   1957   1994
  6453   8   1958   1957   1956   1961
  6454   9   1994   1957   1956   1961
  6455  10   1955   1956   1961   1948
  6456  10   1955   1956   1961   1962
  6457  10   1955   1956   1961    533
  6458  10   1957   1956   1961   1948
  6459  10   1957   1956   1961   1962
  6460  10   1957   1956   1961    533
  6461   1   1956   1957   1958   1959
  6462   2   1956   1957   1958   1995
  6463   2   1959   1958   1957   1994
  6464   7   1994   1957   1958   1995
  6465   1   1957   1958   1959   1960
  6466   3   1957   1958   1959   2108
  6467   2   1960   1959   1958   1995
  6468   4   1995   1958   1959   2108
  6469   1   1958   1959   1960   1955
  6470   2   1958   1959   1960   1996
  6471   3   1955   1960   1959   2108
  6472   4   1996   1960   1959   2108
  6473   5   1958   1959   2108   2107
  6474   6   1958   1959   2108   2111
  6475   6   1958   1959   2108   2112
  6476   5   1960   1959   2108   2107
  6477   6   1960   1959   2108   2111
  6478   6   1960   1959   2108   2112
  6479  10   1963   1962   1961   1948
  6480  10   1967   1962   1961   1948
  6481  10   1963   1962   1961   1956
  6482  10   1967   1962   1961   1956
  6483  10   1963   1962   1961    533
  6484  10   1967   1962   1961    533
  6485   8   1964   1963   1962   1961
  6486   9   1997   1963   1962   1961
  6487   1   1967   1962   1963   1964
  6488   2   1967   1962   1963   1997
  6489   8   1966   1967   1962   1961
  6490   9    560   1967   1962   1961
  6491   1   1963   1962   1967   1966
  6492   2   1963   1962   1967    560
  6493   1   1962   1963   1964   1965
  6494   2   1962   1963   1964   1998
  6495   2   1965   1964   1963   1997
  6496   7   1997   1963   1964   1998
  6497   1   1963   1964   1965   1966
  6498   3   1963   1964   1965   2060
  6499   2   1966   1965   1964   1998
  6500   4   1998   1964   1965   2060
  6501   1   1964   1965   1966   1967
  6502   2   1964   1965   1966   1999
  6503   3   1967   1966   1965   2060
  6504   4   1999   1966   1965   2060
  6505   5   1964   1965   2060    619
  6506   6   1964   1965   2060   2063
  6507   6   1964   1965   2060   2064
  6508   5   1966   1965   2060    619
  6509   6   1966   1965   2060   2063
  6510   6   1966   1965   2060   2064
  6511   1   1965   1966   1967   1962
  6512   2   1965   1966   1967    560
  6513   2   1962   1967   1966   1999
  6514   7   1999   1966   1967    560
  6515   1   1973   1968   1969   1970
  6516   2   1973   1968   1969   2002
  6517   2   1970   1969   1968   2001
  6518   7   2001   1968   1969   2002
  6519   1   1969   1968   1973   1972
  6520   8   1969   1968   1973    521
  6521   2   1972   1973   1968   2001
  6522   9   2001   1968   1973    521
  6523   1   1968   1969   1970   1971
  6524   8   1968   1969   1970   1974
  6525   2   1971   1970   1969   2002
  6526   9   2002   1969   1970   1974
  6527   1   1969   1970   1971   1972
  6528   2   1969   1970   1971   2003
  6529   8   1972   1971   1970   1974
  6530   9   2003   1971   1970   1974
  6531  10   1969   1970   1974   1978
  6532  10   1969   1970   1974   1981
  6533  10   1969   1970   1974   1992
  6534  10   1971   1970   1974   1978
  6535  10   1971   1970   1974   1981
  6536  10   1971   1970   1974   1992
  6537   1   1970   1971   1972   1973
  6538   2   1970   1971   1972   2004
  6539   2   1973   1972   1971   2003
  6540   7   2003   1971   1972   2004
  6541   1   1971   1972   1973   1968
  6542   8   1971   1972   1973    521
  6543   2   1968   1973   1972   2004
  6544   9   2004   1972   1973    521
  6545  10   1977   1978   1974   1970
  6546  10   1979   1978   1974   1970
  6547  10   1977   1978   1974   1981
  6548  10   1979   1978   1974   1981
  6549  10   1977   1978   1974   1992
  6550  10   1979   1978   1974   1992
  6551  10   1982   1981   1974   1970
  6552  10   1986   1981   1974   1970
  6553  10   1982   1981   1974   1978
  6554  10   1986   1981   1974   1978
  6555  10   1982   1981   1974   1992
  6556  10   1986   1981   1974   1992
  6557  10   1987   1992   1974   1970
  6558  10   1991   1992   1974   1970
  6559  10   1987   1992   1974   1978
  6560  10   1991   1992   1974   1978
  6561  10   1987   1992   1974   1981
  6562  10   1991   1992   1974   1981
  6563   1   1980   1975   1976   1977
  6564   2   1980   1975   1976   2005
  6565   3   1977   1976   1975   2029
  6566   4   2005   1976   1975   2029
  6567   1   1976   1975   1980   1979
  6568   2   1976   1975   1980   2008
  6569   3   1979   1980   1975   2029
  6570   4   2008   1980   1975   2029
  6571   5   1976   1975   2029   2030
  6572   6   1976   1975   2029   2031
  6573   6   1976   1975   2029   2032
  6574   5   1980   1975   2029   2030
  6575   6   1980   1975   2029   2031
  6576   6   1980   1975   2029   2032
  6577   1   1975   1976   1977   1978
  6578   2   1975   1976   1977   2006
  6579   2   1978   1977   1976   2005
  6580   7   2005   1976   1977   2006
  6581   8   1976   1977   1978   1974
  6582   1   1976   1977   1978   1979
  6583   9   2006   1977   1978   1974
  6584   2   1979   1978   1977   2006
  6585   8   1980   1979   1978   1974
  6586   9   2007   1979   1978   1974
  6587   1   1977   1978   1979   1980
  6588   2   1977   1978   1979   2007
  6589   1   1978   1979   1980   1975
  6590   2   1978   1979   1980   2008
  6591   2   1975   1980   1979   2007
  6592   7   2007   1979   1980   2008
  6593   8   1983   1982   1981   1974
  6594   9   2009   1982   1981   1974
  6595   1   1986   1981   1982   1983
  6596   2   1986   1981   1982   2009
  6597   8   1985   1986   1981   1974
  6598   9   2012   1986   1981   1974
  6599   1   1982   1981   1986   1985
  6600   2   1982   1981   1986   2012
  6601   1   1981   1982   1983   1984
  6602   2   1981   1982   1983   2010
  6603   2   1984   1983   1982   2009
  6604   7   2009   1982   1983   2010
  6605   1   1982   1983   1984   1985
  6606   3   1982   1983   1984   2023
  6607   2   1985   1984   1983   2010
  6608   4   2010   1983   1984   2023
  6609   1   1983   1984   1985   1986
  6610   2   1983   1984   1985   2011
  6611   3   1986   1985   1984   2023
  6612   4   2011   1985   1984   2023
  6613   5   1983   1984   2023   2024
  6614   6   1983   1984   2023   2025
  6615   6   1983   1984   2023   2026
  6616   5   1985   1984   2023   2024
  6617   6   1985   1984   2023   2025
  6618   6   1985   1984   2023   2026
  6619   1   1984   1985   1986   1981
  6620   2   1984   1985   1986   2012
  6621   2   1981   1986   1985   2011
  6622   7   2011   1985   1986   2012
  6623   1   1992   1987   1988   1989
  6624   2   1992   1987   1988   2014
  6625   2   1989   1988   1987   2013
  6626   7   2013   1987   1988   2014
  6627   8   1988   1987   1992   1974
  6628   1   1988   1987   1992   1991
  6629   9   2013   1987   1992   1974
  6630   2   1991   1992   1987   2013
  6631   1   1987   1988   1989   1990
  6632   3   1987   1988   1989    614
  6633   2   1990   1989   1988   2014
  6634   4   2014   1988   1989    614
  6635   1   1988   1989   1990   1991
  6636   2   1988   1989   1990    575
  6637   3   1991   1990   1989    614
  6638   4    575   1990   1989    614
  6639   1   1989   1990   1991   1992
  6640   2   1989   1990   1991   2016
  6641   2   1992   1991   1990    575
  6642   7    575   1990   1991   2016
  6643   1   1990   1991   1992   1987
  6644   8   1990   1991   1992   1974
  6645   2   1987   1992   1991   2016
  6646   9   2016   1991   1992   1974
  6647  11   1873   2017   2018   1945
  6648  12   1873   2017   2018   2021
  6649  12   1873   2017   2018   2022
  6650  12   1945   2018   2017   2019
  6651  13   2019   2017   2018   2021
  6652  13   2019   2017   2018   2022
  6653  12   1945   2018   2017   2020
  6654  13   2020   2017   2018   2021
  6655  13   2020   2017   2018   2022
  6656  11   1984   2023   2024   1831
  6657  12   1984   2023   2024   2027
  6658  12   1984   2023   2024   2028
  6659  12   1831   2024   2023   2025
  6660  13   2025   2023   2024   2027
  6661  13   2025   2023   2024   2028
  6662  12   1831   2024   2023   2026
  6663  13   2026   2023   2024   2027
  6664  13   2026   2023   2024   2028
  6665  11   1975   2029   2030    400
  6666  12   1975   2029   2030   2033
  6667  12   1975   2029   2030    594
  6668  12    400   2030   2029   2031
  6669  13   2031   2029   2030   2033
  6670  13   2031   2029   2030    594
  6671  12    400   2030   2029   2032
  6672  13   2032   2029   2030   2033
  6673  13   2032   2029   2030    594
  6674  11   1768   2035   2036   1903
  6675  12   1768   2035   2036   2039
  6676  12   1768   2035   2036   2040
  6677  12   1903   2036   2035   2037
  6678  13   2037   2035   2036   2039
  6679  13   2037   2035   2036   2040
  6680  12   1903   2036   2035   2038
  6681  13   2038   2035   2036   2039
  6682  13   2038   2035   2036   2040
  6683  11   1912   2041   2042   1759
  6684  12   1912   2041   2042   2045
  6685  12   1912   2041   2042   2046
  6686  12   1759   2042   2041   2043
  6687  13   2043   2041   2042   2045
  6688  13   2043   2041   2042   2046
  6689  12   1759   2042   2041   2044
  6690  13   2044   2041   2042   2045
  6691  13   2044   2041   2042   2046
  6692   5   2450   2449   2047   2768
  6693   5   2454   2449   2047   2768
  6694   6   2450   2449   2047   2049
  6695   6   2454   2449   2047   2049
  6696   6   2450   2449   2047   2050
  6697   6   2454   2449   2047   2050
  6698  11   2449   2047   2768   2521
  6699  12   2449   2047   2768   2051
  6700  12   2449   2047   2768   2772
  6701  12   2521   2768   2047   2049
  6702  13   2049   2047   2768   2051
  6703  13   2049   2047   2768   2772
  6704  12   2521   2768   2047   2050
  6705  13   2050   2047   2768   2051
  6706  13   2050   2047   2768   2772
  6707  11   1801   2048   2767   1729
  6708  12   1801   2048   2767   2769
  6709  12   1801   2048   2767   2770
  6710  12   1729   2767   2048   2771
  6711  13   2771   2048   2767   2769
  6712  13   2771   2048   2767   2770
  6713  12   1729   2767   2048   2052
  6714  13   2052   2048   2767   2769
  6715  13   2052   2048   2767   2770
  6716  11   1701   2053   2054    549
  6717  12   1701   2053   2054   2057
  6718  12   1701   2053   2054    618
  6719  12    549   2054   2053   2055
  6720  13   2055   2053   2054   2057
  6721  13   2055   2053   2054    618
  6722  12    549   2054   2053   2056
  6723  13   2056   2053   2054   2057
  6724  13   2056   2053   2054    618
  6725  11   1696   2065   2066    303
  6726  12   1696   2065   2066   2069
  6727  12   1696   2065   2066   2070
  6728  12    303   2066   2065    627
  6729  13    627   2065   2066   2069
  6730  13    627   2065   2066   2070
  6731  12    303   2066   2065   2068
  6732  13   2068   2065   2066   2069
  6733  13   2068   2065   2066   2070
  6734  11   1917   2071   2072   1629
  6735  12   1917   2071   2072   2075
  6736  12   1917   2071   2072   2076
  6737  12   1629   2072   2071   2073
  6738  13   2073   2071   2072   2075
  6739  13   2073   2071   2072   2076
  6740  12   1629   2072   2071   2074
  6741  13   2074   2071   2072   2075
  6742  13   2074   2071   2072   2076
  6743  11   1605   2077   2078   1893
  6744  12   1605   2077   2078   2081
  6745  12   1605   2077   2078   2082
  6746  12   1893   2078   2077   2079
  6747  13   2079   2077   2078   2081
  6748  13   2079   2077   2078   2082
  6749  12   1893   2078   2077   2080
  6750  13   2080   2077   2078   2081
  6751  13   2080   2077   2078   2082
  6752  11   1624   2083   2084   1815
  6753  12   1624   2083   2084   2087
  6754  12   1624   2083   2084   2088
  6755  12   1815   2084   2083   2085
  6756  13   2085   2083   2084   2087
  6757  13   2085   2083   2084   2088
  6758  12   1815   2084   2083   2806
  6759  13   2806   2083   2084   2087
  6760  13   2806   2083   2084   2088
  6761  11   1615   2089   2090   1687
  6762  12   1615   2089   2090   2093
  6763  12   1615   2089   2090   2094
  6764  12   1687   2090   2089   2091
  6765  13   2091   2089   2090   2093
  6766  13   2091   2089   2090   2094
  6767  12   1687   2090   2089   2092
  6768  13   2092   2089   2090   2093
  6769  13   2092   2089   2090   2094
  6770  11   1557   2095   2096   1773
  6771  12   1557   2095   2096   2099
  6772  12   1557   2095   2096   2100
  6773  12   1773   2096   2095   2097
  6774  13   2097   2095   2096   2099
  6775  13   2097   2095   2096   2100
  6776  12   1773   2096   2095   2098
  6777  13   2098   2095   2096   2099
  6778  13   2098   2095   2096   2100
  6779  11   1533   2101   2102   1749
  6780  12   1533   2101   2102   2105
  6781  12   1533   2101   2102   2106
  6782  12   1749   2102   2101   2103
  6783  13   2103   2101   2102   2105
  6784  13   2103   2101   2102   2106
  6785  12   1749   2102   2101   2104
  6786  13   2104   2101   2102   2105
  6787  13   2104   2101   2102   2106
  6788  11   1552   2107   2108   1959
  6789  12   1552   2107   2108   2111
  6790  12   1552   2107   2108   2112
  6791  12   1959   2108   2107   2109
  6792  13   2109   2107   2108   2111
  6793  13   2109   2107   2108   2112
  6794  12   1959   2108   2107   2110
  6795  13   2110   2107   2108   2111
  6796  13   2110   2107   2108   2112
  6797  11   1585   2113   2114   1527
  6798  12   1585   2113   2114   2117
  6799  12   1585   2113   2114   2118
  6800  12   1527   2114   2113   2835
  6801  13   2835   2113   2114   2117
  6802  13   2835   2113   2114   2118
  6803  12   1527   2114   2113   2116
  6804  13   2116   2113   2114   2117
  6805  13   2116   2113   2114   2118
  6806  11   1513   2119   2120   1599
  6807  12   1513   2119   2120   2843
  6808  12   1513   2119   2120   2124
  6809  12   1599   2120   2119   2121
  6810  13   2121   2119   2120   2843
  6811  13   2121   2119   2120   2124
  6812  12   1599   2120   2119   2842
  6813  13   2842   2119   2120   2843
  6814  13   2842   2119   2120   2124
  6815  11   1485   2125   2126   1845
  6816  12   1485   2125   2126   2129
  6817  12   1485   2125   2126   2130
  6818  12   1845   2126   2125   2127
  6819  13   2127   2125   2126   2129
  6820  13   2127   2125   2126   2130
  6821  12   1845   2126   2125   2128
  6822  13   2128   2125   2126   2129
  6823  13   2128   2125   2126   2130
  6824  11   1821   2131   2132   1461
  6825  12   1821   2131   2132   2135
  6826  12   1821   2131   2132   2136
  6827  12   1461   2132   2131   2133
  6828  13   2133   2131   2132   2135
  6829  13   2133   2131   2132   2136
  6830  12   1461   2132   2131   2134
  6831  13   2134   2131   2132   2135
  6832  13   2134   2131   2132   2136
  6833  11   1887   2137   2138   1480
  6834  12   1887   2137   2138   2141
  6835  12   1887   2137   2138   2142
  6836  12   1480   2138   2137   2139
  6837  13   2139   2137   2138   2141
  6838  13   2139   2137   2138   2142
  6839  12   1480   2138   2137   2140
  6840  13   2140   2137   2138   2141
  6841  13   2140   2137   2138   2142
  6842  11   1441   2143   2144   1671
  6843  12   1441   2143   2144   2147
  6844  12   1441   2143   2144   2148
  6845  12   1671   2144   2143   2145
  6846  13   2145   2143   2144   2147
  6847  13   2145   2143   2144   2148
  6848  12   1671   2144   2143   2146
  6849  13   2146   2143   2144   2147
  6850  13   2146   2143   2144   2148
  6851  11     15   2149   2150   1657
  6852  12     15   2149   2150   2153
  6853  12     15   2149   2150   2154
  6854  12   1657   2150   2149   2151
  6855  13   2151   2149   2150   2153
  6856  13   2151   2149   2150   2154
  6857  12   1657   2150   2149   2152
  6858  13   2152   2149   2150   2153
  6859  13   2152   2149   2150   2154
  6860  11   1543   2155   2156   1471
  6861  12   1543   2155   2156   2159
  6862  12   1543   2155   2156   2160
  6863  12   1471   2156   2155   2157
  6864  13   2157   2155   2156   2159
  6865  13   2157   2155   2156   2160
  6866  12   1471   2156   2155   2158
  6867  13   2158   2155   2156   2159
  6868  13   2158   2155   2156   2160
  6869   1   2166   2161   2162   2163
  6870   2   2166   2161   2162   2167
  6871   3   2163   2162   2161   2863
  6872   4   2167   2162   2161   2863
  6873   1   2162   2161   2166   2165
  6874   2   2162   2161   2166   2170
  6875   3   2165   2166   2161   2863
  6876   4   2170   2166   2161   2863
  6877   5   2162   2161   2863   2864
  6878   6   2162   2161   2863   2865
  6879   6   2162   2161   2863   2866
  6880   5   2166   2161   2863   2864
  6881   6   2166   2161   2863   2865
  6882   6   2166   2161   2863   2866
  6883   1   2161   2162   2163   2164
  6884   2   2161   2162   2163   2168
  6885   2   2164   2163   2162   2167
  6886   7   2167   2162   2163   2168
  6887   1   2162   2163   2164   2165
  6888   8   2162   2163   2164   2177
  6889   2   2165   2164   2163   2168
  6890   9   2168   2163   2164   2177
  6891   1   2163   2164   2165   2166
  6892   2   2163   2164   2165   2169
  6893   8   2166   2165   2164   2177
  6894   9   2169   2165   2164   2177
  6895  10   2163   2164   2177   2172
  6896  10   2163   2164   2177   2178
  6897  10   2163   2164   2177   2189
  6898  10   2165   2164   2177   2172
  6899  10   2165   2164   2177   2178
  6900  10   2165   2164   2177   2189
  6901   1   2164   2165   2166   2161
  6902   2   2164   2165   2166   2170
  6903   2   2161   2166   2165   2169
  6904   7   2169   2165   2166   2170
  6905   1   2176   2171   2172   2173
  6906   8   2176   2171   2172   2177
  6907   2   2173   2172   2171   2209
  6908   9   2209   2171   2172   2177
  6909   1   2172   2171   2176   2175
  6910   2   2172   2171   2176   2212
  6911   2   2175   2176   2171   2209
  6912   7   2209   2171   2176   2212
  6913   1   2171   2172   2173   2174
  6914   2   2171   2172   2173   2210
  6915   8   2174   2173   2172   2177
  6916   9   2210   2173   2172   2177
  6917  10   2171   2172   2177   2164
  6918  10   2171   2172   2177   2178
  6919  10   2171   2172   2177   2189
  6920  10   2173   2172   2177   2164
  6921  10   2173   2172   2177   2178
  6922  10   2173   2172   2177   2189
  6923   1   2172   2173   2174   2175
  6924   2   2172   2173   2174   2211
  6925   2   2175   2174   2173   2210
  6926   7   2210   2173   2174   2211
  6927   1   2173   2174   2175   2176
  6928   3   2173   2174   2175   1429
  6929   2   2176   2175   2174   2211
  6930   4   2211   2174   2175   1429
  6931   1   2174   2175   2176   2171
  6932   2   2174   2175   2176   2212
  6933   3   2171   2176   2175   1429
  6934   4   2212   2176   2175   1429
  6935  10   2179   2178   2177   2164
  6936  10   2183   2178   2177   2164
  6937  10   2179   2178   2177   2172
  6938  10   2183   2178   2177   2172
  6939  10   2179   2178   2177   2189
  6940  10   2183   2178   2177   2189
  6941  10   2184   2189   2177   2164
  6942  10   2188   2189   2177   2164
  6943  10   2184   2189   2177   2172
  6944  10   2188   2189   2177   2172
  6945  10   2184   2189   2177   2178
  6946  10   2188   2189   2177   2178
  6947   8   1460   2179   2178   2177
  6948   9   2213   2179   2178   2177
  6949   1   2183   2178   2179   1460
  6950   2   2183   2178   2179   2213
  6951   8   1462   2183   2178   2177
  6952   9   2216   2183   2178   2177
  6953   1   2179   2178   2183   1462
  6954   2   2179   2178   2183   2216
  6955   1   1459   2180   2181   2182
  6956   3   1459   2180   2181   2852
  6957   2   2182   2181   2180   1494
  6958   4   1494   2180   2181   2852
  6959   1   2180   2181   2182   1463
  6960   2   2180   2181   2182   2215
  6961   3   1463   2182   2181   2852
  6962   4   2215   2182   2181   2852
  6963   5   2180   2181   2852   2851
  6964   6   2180   2181   2852   2855
  6965   6   2180   2181   2852   2856
  6966   5   2182   2181   2852   2851
  6967   6   2182   2181   2852   2855
  6968   6   2182   2181   2852   2856
  6969   1   2189   2184   2185   2186
  6970   2   2189   2184   2185   2218
  6971   2   2186   2185   2184   2217
  6972   7   2217   2184   2185   2218
  6973   8   2185   2184   2189   2177
  6974   1   2185   2184   2189   2188
  6975   9   2217   2184   2189   2177
  6976   2   2188   2189   2184   2217
  6977   1   2184   2185   2186   2187
  6978   8   2184   2185   2186   2190
  6979   2   2187   2186   2185   2218
  6980   9   2218   2185   2186   2190
  6981   1   2185   2186   2187   2188
  6982   2   2185   2186   2187   2219
  6983   8   2188   2187   2186   2190
  6984   9   2219   2187   2186   2190
  6985  10   2185   2186   2190   2194
  6986  10   2185   2186   2190   2197
  6987  10   2185   2186   2190   2208
  6988  10   2187   2186   2190   2194
  6989  10   2187   2186   2190   2197
  6990  10   2187   2186   2190   2208
  6991   1   2186   2187   2188   2189
  6992   2   2186   2187   2188   2220
  6993   2   2189   2188   2187   2219
  6994   7   2219   2187   2188   2220
  6995   8   2187   2188   2189   2177
  6996   1   2187   2188   2189   2184
  6997   9   2220   2188   2189   2177
  6998   2   2184   2189   2188   2220
  6999  10   2193   2194   2190   2186
  7000  10   2195   2194   2190   2186
  7001  10   2193   2194   2190   2197
  7002  10   2195   2194   2190   2197
  7003  10   2193   2194   2190   2208
  7004  10   2195   2194   2190   2208
  7005  10   2198   2197   2190   2186
  7006  10   2202   2197   2190   2186
  7007  10   2198   2197   2190   2194
  7008  10   2202   2197   2190   2194
  7009  10   2198   2197   2190   2208
  7010  10   2202   2197   2190   2208
  7011  10   2203   2208   2190   2186
  7012  10   2207   2208   2190   2186
  7013  10   2203   2208   2190   2194
  7014  10   2207   2208   2190   2194
  7015  10   2203   2208   2190   2197
  7016  10   2207   2208   2190   2197
  7017   1   2196   2191   2192   2193
  7018   2   2196   2191   2192   2221
  7019   3   2193   2192   2191   2876
  7020   4   2221   2192   2191   2876
  7021   1   2192   2191   2196   2195
  7022   2   2192   2191   2196   2224
  7023   3   2195   2196   2191   2876
  7024   4   2224   2196   2191   2876
  7025   5   2192   2191   2876   2875
  7026   6   2192   2191   2876   2879
  7027   6   2192   2191   2876   2880
  7028   5   2196   2191   2876   2875
  7029   6   2196   2191   2876   2879
  7030   6   2196   2191   2876   2880
  7031   1   2191   2192   2193   2194
  7032   2   2191   2192   2193   2222
  7033   2   2194   2193   2192   2221
  7034   7   2221   2192   2193   2222
  7035   8   2192   2193   2194   2190
  7036   1   2192   2193   2194   2195
  7037   9   2222   2193   2194   2190
  7038   2   2195   2194   2193   2222
  7039   8   2196   2195   2194   2190
  7040   9   2223   2195   2194   2190
  7041   1   2193   2194   2195   2196
  7042   2   2193   2194   2195   2223
  7043   1   2194   2195   2196   2191
  7044   2   2194   2195   2196   2224
  7045   2   2191   2196   2195   2223
  7046   7   2223   2195   2196   2224
  7047   8   2199   2198   2197   2190
  7048   9   2225   2198   2197   2190
  7049   1   2202   2197   2198   2199
  7050   2   2202   2197   2198   2225
  7051   8   2201   2202   2197   2190
  7052   9   2228   2202   2197   2190
  7053   1   2198   2197   2202   2201
  7054   2   2198   2197   2202   2228
  7055   1   2197   2198   2199   2200
  7056   2   2197   2198   2199   2226
  7057   2   2200   2199   2198   2225
  7058   7   2225   2198   2199   2226
  7059   1   2198   2199   2200   2201
  7060   3   2198   2199   2200   2858
  7061   2   2201   2200   2199   2226
  7062   4   2226   2199   2200   2858
  7063   1   2199   2200   2201   2202
  7064   2   2199   2200   2201   2227
  7065   3   2202   2201   2200   2858
  7066   4   2227   2201   2200   2858
  7067   5   2199   2200   2858   2857
  7068   6   2199   2200   2858   2861
  7069   6   2199   2200   2858   2862
  7070   5   2201   2200   2858   2857
  7071   6   2201   2200   2858   2861
  7072   6   2201   2200   2858   2862
  7073   1   2200   2201   2202   2197
  7074   2   2200   2201   2202   2228
  7075   2   2197   2202   2201   2227
  7076   7   2227   2201   2202   2228
  7077   1   2208   2203   2204   2205
  7078   2   2208   2203   2204   2230
  7079   2   2205   2204   2203   2229
  7080   7   2229   2203   2204   2230
  7081   8   2204   2203   2208   2190
  7082   1   2204   2203   2208   2207
  7083   9   2229   2203   2208   2190
  7084   2   2207   2208   2203   2229
  7085   1   2203   2204   2205   2206
  7086   3   2203   2204   2205   2845
  7087   2   2206   2205   2204   2230
  7088   4   2230   2204   2205   2845
  7089   1   2204   2205   2206   2207
  7090   2   2204   2205   2206   2231
  7091   3   2207   2206   2205   2845
  7092   4   2231   2206   2205   2845
  7093   5   2204   2205   2845   2846
  7094   6   2204   2205   2845   2847
  7095   6   2204   2205   2845   2848
  7096   5   2206   2205   2845   2846
  7097   6   2206   2205   2845   2847
  7098   6   2206   2205   2845   2848
  7099   1   2205   2206   2207   2208
  7100   2   2205   2206   2207   2232
  7101   2   2208   2207   2206   2231
  7102   7   2231   2206   2207   2232
  7103   8   2206   2207   2208   2190
  7104   1   2206   2207   2208   2203
  7105   9   2232   2207   2208   2190
  7106   2   2203   2208   2207   2232
  7107   1   1514   2233   2238   2237
  7108   2   1514   2233   2238   2242
  7109   3   2237   2238   2233   2839
  7110   4   2242   2238   2233   2839
  7111   5   1514   2233   2839   2840
  7112   6   1514   2233   2839   2841
  7113   6   1514   2233   2839   2122
  7114   5   2238   2233   2839   2840
  7115   6   2238   2233   2839   2841
  7116   6   2238   2233   2839   2122
  7117   1   1513   2234   2235   1516
  7118   2   1513   2234   2235   2240
  7119   2   1516   2235   2234   2239
  7120   7   2239   2234   2235   2240
  7121   1   1515   2236   2237   2238
  7122   2   1515   2236   2237   2241
  7123   8   2238   2237   2236   2249
  7124   9   2241   2237   2236   2249
  7125  10   1515   2236   2249   2244
  7126  10   1515   2236   2249   2250
  7127  10   1515   2236   2249   2261
  7128  10   2237   2236   2249   2244
  7129  10   2237   2236   2249   2250
  7130  10   2237   2236   2249   2261
  7131   1   2236   2237   2238   2233
  7132   2   2236   2237   2238   2242
  7133   2   2233   2238   2237   2241
  7134   7   2241   2237   2238   2242
  7135   1   2248   2243   2244   2245
  7136   8   2248   2243   2244   2249
  7137   2   2245   2244   2243   2281
  7138   9   2281   2243   2244   2249
  7139   1   2244   2243   2248   2247
  7140   2   2244   2243   2248   2284
  7141   2   2247   2248   2243   2281
  7142   7   2281   2243   2248   2284
  7143   1   2243   2244   2245   2246
  7144   2   2243   2244   2245   2282
  7145   8   2246   2245   2244   2249
  7146   9   2282   2245   2244   2249
  7147  10   2243   2244   2249   2236
  7148  10   2243   2244   2249   2250
  7149  10   2243   2244   2249   2261
  7150  10   2245   2244   2249   2236
  7151  10   2245   2244   2249   2250
  7152  10   2245   2244   2249   2261
  7153   1   2244   2245   2246   2247
  7154   2   2244   2245   2246   2283
  7155   2   2247   2246   2245   2282
  7156   7   2282   2245   2246   2283
  7157   1   2245   2246   2247   2248
  7158   3   2245   2246   2247   2834
  7159   2   2248   2247   2246   2283
  7160   4   2283   2246   2247   2834
  7161   1   2246   2247   2248   2243
  7162   2   2246   2247   2248   2284
  7163   3   2243   2248   2247   2834
  7164   4   2284   2248   2247   2834
  7165   5   2246   2247   2834   2833
  7166   6   2246   2247   2834   2837
  7167   6   2246   2247   2834   2838
  7168   5   2248   2247   2834   2833
  7169   6   2248   2247   2834   2837
  7170   6   2248   2247   2834   2838
  7171  10   2251   2250   2249   2244
  7172  10   1535   2250   2249   2244
  7173  10   2251   2250   2249   2236
  7174  10   1535   2250   2249   2236
  7175  10   2251   2250   2249   2261
  7176  10   1535   2250   2249   2261
  7177  10   2260   2261   2249   2244
  7178  10   2256   2261   2249   2244
  7179  10   2260   2261   2249   2236
  7180  10   2256   2261   2249   2236
  7181  10   2260   2261   2249   2250
  7182  10   2256   2261   2249   2250
  7183   8   1532   2251   2250   2249
  7184   9   2285   2251   2250   2249
  7185   1   1535   2250   2251   1532
  7186   2   1535   2250   2251   2285
  7187   1   1531   2252   2253   2254
  7188   3   1531   2252   2253   2821
  7189   2   2254   2253   2252   1566
  7190   4   1566   2252   2253   2821
  7191   1   2252   2253   2254   2255
  7192   2   2252   2253   2254   2287
  7193   3   2255   2254   2253   2821
  7194   4   2287   2254   2253   2821
  7195   5   2252   2253   2821   2822
  7196   6   2252   2253   2821   2823
  7197   6   2252   2253   2821   2824
  7198   5   2254   2253   2821   2822
  7199   6   2254   2253   2821   2823
  7200   6   2254   2253   2821   2824
  7201   1   2253   2254   2255   1530
  7202   2   2253   2254   2255   2288
  7203   2   1530   2255   2254   2287
  7204   7   2287   2254   2255   2288
  7205   1   2261   2256   2257   2258
  7206   2   2261   2256   2257   2290
  7207   2   2258   2257   2256   2289
  7208   7   2289   2256   2257   2290
  7209   1   2257   2256   2261   2260
  7210   8   2257   2256   2261   2249
  7211   2   2260   2261   2256   2289
  7212   9   2289   2256   2261   2249
  7213   1   2256   2257   2258   2259
  7214   8   2256   2257   2258   2262
  7215   2   2259   2258   2257   2290
  7216   9   2290   2257   2258   2262
  7217   1   2257   2258   2259   2260
  7218   2   2257   2258   2259   2291
  7219   8   2260   2259   2258   2262
  7220   9   2291   2259   2258   2262
  7221  10   2257   2258   2262   2266
  7222  10   2257   2258   2262   2269
  7223  10   2257   2258   2262   2280
  7224  10   2259   2258   2262   2266
  7225  10   2259   2258   2262   2269
  7226  10   2259   2258   2262   2280
  7227   1   2258   2259   2260   2261
  7228   2   2258   2259   2260   2292
  7229   2   2261   2260   2259   2291
  7230   7   2291   2259   2260   2292
  7231   8   2259   2260   2261   2249
  7232   1   2259   2260   2261   2256
  7233   9   2292   2260   2261   2249
  7234   2   2256   2261   2260   2292
  7235  10   2265   2266   2262   2258
  7236  10   2267   2266   2262   2258
  7237  10   2265   2266   2262   2269
  7238  10   2267   2266   2262   2269
  7239  10   2265   2266   2262   2280
  7240  10   2267   2266   2262   2280
  7241  10   2270   2269   2262   2258
  7242  10   2274   2269   2262   2258
  7243  10   2270   2269   2262   2266
  7244  10   2274   2269   2262   2266
  7245  10   2270   2269   2262   2280
  7246  10   2274   2269   2262   2280
  7247  10   2279   2280   2262   2258
  7248  10   2275   2280   2262   2258
  7249  10   2279   2280   2262   2266
  7250  10   2275   2280   2262   2266
  7251  10   2279   2280   2262   2269
  7252  10   2275   2280   2262   2269
  7253   1   2268   2263   2264   2265
  7254   2   2268   2263   2264   2293
  7255   3   2265   2264   2263   2875
  7256   4   2293   2264   2263   2875
  7257   1   2264   2263   2268   2267
  7258   2   2264   2263   2268   2296
  7259   3   2267   2268   2263   2875
  7260   4   2296   2268   2263   2875
  7261   5   2264   2263   2875   2876
  7262   6   2264   2263   2875   2877
  7263   6   2264   2263   2875   2878
  7264   5   2268   2263   2875   2876
  7265   6   2268   2263   2875   2877
  7266   6   2268   2263   2875   2878
  7267   1   2263   2264   2265   2266
  7268   2   2263   2264   2265   2294
  7269   2   2266   2265   2264   2293
  7270   7   2293   2264   2265   2294
  7271   8   2264   2265   2266   2262
  7272   1   2264   2265   2266   2267
  7273   9   2294   2265   2266   2262
  7274   2   2267   2266   2265   2294
  7275   1   2265   2266   2267   2268
  7276   2   2265   2266   2267   2295
  7277   8   2268   2267   2266   2262
  7278   9   2295   2267   2266   2262
  7279   1   2266   2267   2268   2263
  7280   2   2266   2267   2268   2296
  7281   2   2263   2268   2267   2295
  7282   7   2295   2267   2268   2296
  7283   8   2271   2270   2269   2262
  7284   9   2297   2270   2269   2262
  7285   1   2274   2269   2270   2271
  7286   2   2274   2269   2270   2297
  7287   8   2273   2274   2269   2262
  7288   9   2300   2274   2269   2262
  7289   1   2270   2269   2274   2273
  7290   2   2270   2269   2274   2300
  7291   1   2269   2270   2271   2272
  7292   2   2269   2270   2271   2298
  7293   2   2272   2271   2270   2297
  7294   7   2297   2270   2271   2298
  7295   1   2270   2271   2272   2273
  7296   3   2270   2271   2272   2827
  7297   2   2273   2272   2271   2298
  7298   4   2298   2271   2272   2827
  7299   1   2271   2272   2273   2274
  7300   2   2271   2272   2273   2299
  7301   3   2274   2273   2272   2827
  7302   4   2299   2273   2272   2827
  7303   5   2271   2272   2827   2828
  7304   6   2271   2272   2827   2829
  7305   6   2271   2272   2827   2830
  7306   5   2273   2272   2827   2828
  7307   6   2273   2272   2827   2829
  7308   6   2273   2272   2827   2830
  7309   1   2272   2273   2274   2269
  7310   2   2272   2273   2274   2300
  7311   2   2269   2274   2273   2299
  7312   7   2299   2273   2274   2300
  7313   1   2280   2275   2276   2277
  7314   2   2280   2275   2276   2302
  7315   2   2277   2276   2275   2301
  7316   7   2301   2275   2276   2302
  7317   8   2276   2275   2280   2262
  7318   1   2276   2275   2280   2279
  7319   9   2301   2275   2280   2262
  7320   2   2279   2280   2275   2301
  7321   1   2275   2276   2277   2278
  7322   3   2275   2276   2277   2815
  7323   2   2278   2277   2276   2302
  7324   4   2302   2276   2277   2815
  7325   1   2276   2277   2278   2279
  7326   2   2276   2277   2278   2303
  7327   3   2279   2278   2277   2815
  7328   4   2303   2278   2277   2815
  7329   5   2276   2277   2815   2816
  7330   6   2276   2277   2815   2817
  7331   6   2276   2277   2815   2818
  7332   5   2278   2277   2815   2816
  7333   6   2278   2277   2815   2817
  7334   6   2278   2277   2815   2818
  7335   1   2277   2278   2279   2280
  7336   2   2277   2278   2279   2304
  7337   2   2280   2279   2278   2303
  7338   7   2303   2278   2279   2304
  7339   8   2278   2279   2280   2262
  7340   1   2278   2279   2280   2275
  7341   9   2304   2279   2280   2262
  7342   2   2275   2280   2279   2304
  7343   1   1590   2305   2306   2307
  7344   2   1590   2305   2306   2311
  7345   3   2307   2306   2305   2833
  7346   4   2311   2306   2305   2833
  7347   5   2306   2305   2833   2834
  7348   6   2306   2305   2833   2115
  7349   6   2306   2305   2833   2836
  7350   5   1590   2305   2833   2834
  7351   6   1590   2305   2833   2115
  7352   6   1590   2305   2833   2836
  7353   1   2305   2306   2307   2308
  7354   2   2305   2306   2307   2312
  7355   2   2308   2307   2306   2311
  7356   7   2311   2306   2307   2312
  7357   1   2306   2307   2308   1589
  7358   8   2306   2307   2308   2321
  7359   2   1589   2308   2307   2312
  7360   9   2312   2307   2308   2321
  7361  10   2307   2308   2321    876
  7362  10   2307   2308   2321   2322
  7363  10   2307   2308   2321   1613
  7364  10   1589   2308   2321    876
  7365  10   1589   2308   2321   2322
  7366  10   1589   2308   2321   1613
  7367   1   1588   2309   2310   1585
  7368   2   1588   2309   2310   2314
  7369   2   1585   2310   2309   2313
  7370   7   2313   2309   2310   2314
  7371   1   1596   2315   2320   1599
  7372   2   1596   2315   2320   2356
  7373   2   1599   2320   2315   2353
  7374   7   2353   2315   2320   2356
  7375   1   1595   2316   2317   2318
  7376   2   1595   2316   2317   2354
  7377   8   2318   2317   2316    881
  7378   9   2354   2317   2316    881
  7379   1   2316   2317   2318   2319
  7380   2   2316   2317   2318   2355
  7381   2   2319   2318   2317   2354
  7382   7   2354   2317   2318   2355
  7383   1   2317   2318   2319   1600
  7384   3   2317   2318   2319   2840
  7385   2   1600   2319   2318   2355
  7386   4   2355   2318   2319   2840
  7387   5   2318   2319   2840   2839
  7388   6   2318   2319   2840   2123
  7389   6   2318   2319   2840   2844
  7390   5   1600   2319   2840   2839
  7391   6   1600   2319   2840   2123
  7392   6   1600   2319   2840   2844
  7393  10   2323   2322   2321   2308
  7394  10   2327   2322   2321   2308
  7395  10   2323   2322   2321    876
  7396  10   2327   2322   2321    876
  7397  10   2323   2322   2321   1613
  7398  10   2327   2322   2321   1613
  7399   8   2324   2323   2322   2321
  7400   9   2357   2323   2322   2321
  7401   1   2327   2322   2323   2324
  7402   2   2327   2322   2323   2357
  7403   8   2326   2327   2322   2321
  7404   9   2360   2327   2322   2321
  7405   1   2323   2322   2327   2326
  7406   2   2323   2322   2327   2360
  7407   1   2322   2323   2324   2325
  7408   2   2322   2323   2324   2358
  7409   2   2325   2324   2323   2357
  7410   7   2357   2323   2324   2358
  7411   1   2323   2324   2325   2326
  7412   3   2323   2324   2325   2797
  7413   2   2326   2325   2324   2358
  7414   4   2358   2324   2325   2797
  7415   1   2324   2325   2326   2327
  7416   2   2324   2325   2326   2359
  7417   3   2327   2326   2325   2797
  7418   4   2359   2326   2325   2797
  7419   5   2324   2325   2797   2798
  7420   6   2324   2325   2797   2799
  7421   6   2324   2325   2797   2800
  7422   5   2326   2325   2797   2798
  7423   6   2326   2325   2797   2799
  7424   6   2326   2325   2797   2800
  7425   1   2325   2326   2327   2322
  7426   2   2325   2326   2327   2360
  7427   2   2322   2327   2326   2359
  7428   7   2359   2326   2327   2360
  7429   1   2333   2328   2329   2330
  7430   2   2333   2328   2329   2362
  7431   2   2330   2329   2328   2361
  7432   7   2361   2328   2329   2362
  7433   8   2329   2328   2333   1601
  7434   1   2329   2328   2333   2332
  7435   9   2361   2328   2333   1601
  7436   2   2332   2333   2328   2361
  7437   1   2328   2329   2330   2331
  7438   8   2328   2329   2330   2334
  7439   2   2331   2330   2329   2362
  7440   9   2362   2329   2330   2334
  7441   1   2329   2330   2331   2332
  7442   2   2329   2330   2331   2363
  7443   8   2332   2331   2330   2334
  7444   9   2363   2331   2330   2334
  7445  10   2329   2330   2334   2338
  7446  10   2329   2330   2334   2341
  7447  10   2329   2330   2334   2352
  7448  10   2331   2330   2334   2338
  7449  10   2331   2330   2334   2341
  7450  10   2331   2330   2334   2352
  7451   1   2330   2331   2332   2333
  7452   2   2330   2331   2332   1644
  7453   2   2333   2332   2331   2363
  7454   7   2363   2331   2332   1644
  7455   1   2331   2332   2333   2328
  7456   8   2331   2332   2333   1601
  7457   2   2328   2333   2332   1644
  7458   9   1644   2332   2333   1601
  7459  10   2337   2338   2334   2330
  7460  10   2339   2338   2334   2330
  7461  10   2337   2338   2334   2341
  7462  10   2339   2338   2334   2341
  7463  10   2337   2338   2334   2352
  7464  10   2339   2338   2334   2352
  7465  10   2342   2341   2334   2330
  7466  10   2346   2341   2334   2330
  7467  10   2342   2341   2334   2338
  7468  10   2346   2341   2334   2338
  7469  10   2342   2341   2334   2352
  7470  10   2346   2341   2334   2352
  7471  10   2351   2352   2334   2330
  7472  10   2347   2352   2334   2330
  7473  10   2351   2352   2334   2338
  7474  10   2347   2352   2334   2338
  7475  10   2351   2352   2334   2341
  7476  10   2347   2352   2334   2341
  7477   1   2340   2335   2336   2337
  7478   2   2340   2335   2336   2365
  7479   3   2337   2336   2335   2809
  7480   4   2365   2336   2335   2809
  7481   1   2336   2335   2340   2339
  7482   2   2336   2335   2340   2368
  7483   3   2339   2340   2335   2809
  7484   4   2368   2340   2335   2809
  7485   5   2336   2335   2809   2810
  7486   6   2336   2335   2809   2811
  7487   6   2336   2335   2809   2812
  7488   5   2340   2335   2809   2810
  7489   6   2340   2335   2809   2811
  7490   6   2340   2335   2809   2812
  7491   1   2335   2336   2337   2338
  7492   2   2335   2336   2337   2366
  7493   2   2338   2337   2336   2365
  7494   7   2365   2336   2337   2366
  7495   8   2336   2337   2338   2334
  7496   1   2336   2337   2338   2339
  7497   9   2366   2337   2338   2334
  7498   2   2339   2338   2337   2366
  7499   8   2340   2339   2338   2334
  7500   9   2367   2339   2338   2334
  7501   1   2337   2338   2339   2340
  7502   2   2337   2338   2339   2367
  7503   1   2338   2339   2340   2335
  7504   2   2338   2339   2340   2368
  7505   2   2335   2340   2339   2367
  7506   7   2367   2339   2340   2368
  7507   8   2343   2342   2341   2334
  7508   9   2369   2342   2341   2334
  7509   1   2346   2341   2342   2343
  7510   2   2346   2341   2342   2369
  7511   8   1625   2346   2341   2334
  7512   9   2372   2346   2341   2334
  7513   1   2342   2341   2346   1625
  7514   2   2342   2341   2346   2372
  7515   1   2341   2342   2343   2344
  7516   2   2341   2342   2343   2370
  7517   2   2344   2343   2342   2369
  7518   7   2369   2342   2343   2370
  7519   1   2342   2343   2344   1625
  7520   3   2342   2343   2344   2803
  7521   2   1625   2344   2343   2370
  7522   4   2370   2343   2344   2803
  7523   5   2343   2344   2803   2804
  7524   6   2343   2344   2803   2805
  7525   6   2343   2344   2803   2086
  7526   5   1625   2344   2803   2804
  7527   6   1625   2344   2803   2805
  7528   6   1625   2344   2803   2086
  7529   1   2352   2347   2348   2349
  7530   2   2352   2347   2348   2374
  7531   2   2349   2348   2347   2373
  7532   7   2373   2347   2348   2374
  7533   1   2348   2347   2352   2351
  7534   8   2348   2347   2352   2334
  7535   2   2351   2352   2347   2373
  7536   9   2373   2347   2352   2334
  7537   1   2347   2348   2349   2350
  7538   3   2347   2348   2349   2792
  7539   2   2350   2349   2348   2374
  7540   4   2374   2348   2349   2792
  7541   1   2348   2349   2350   2351
  7542   2   2348   2349   2350   2375
  7543   3   2351   2350   2349   2792
  7544   4   2375   2350   2349   2792
  7545   5   2348   2349   2792   2791
  7546   6   2348   2349   2792   2795
  7547   6   2348   2349   2792   2796
  7548   5   2350   2349   2792   2791
  7549   6   2350   2349   2792   2795
  7550   6   2350   2349   2792   2796
  7551   1   2349   2350   2351   2352
  7552   2   2349   2350   2351   2376
  7553   2   2352   2351   2350   2375
  7554   7   2375   2350   2351   2376
  7555   1   2350   2351   2352   2347
  7556   8   2350   2351   2352   2334
  7557   2   2347   2352   2351   2376
  7558   9   2376   2351   2352   2334
  7559   1   2382   2377   2378   2379
  7560   2   2382   2377   2378   2383
  7561   3   2379   2378   2377   2870
  7562   4   2383   2378   2377   2870
  7563   1   2378   2377   2382   2381
  7564   2   2378   2377   2382   2386
  7565   3   2381   2382   2377   2870
  7566   4   2386   2382   2377   2870
  7567   5   2378   2377   2870   2869
  7568   6   2378   2377   2870   2873
  7569   6   2378   2377   2870   2874
  7570   5   2382   2377   2870   2869
  7571   6   2382   2377   2870   2873
  7572   6   2382   2377   2870   2874
  7573   1   2377   2378   2379   2380
  7574   2   2377   2378   2379   2384
  7575   2   2380   2379   2378   2383
  7576   7   2383   2378   2379   2384
  7577   1   2378   2379   2380   2381
  7578   8   2378   2379   2380   2393
  7579   2   2381   2380   2379   2384
  7580   9   2384   2379   2380   2393
  7581   1   2379   2380   2381   2382
  7582   2   2379   2380   2381   2385
  7583   8   2382   2381   2380   2393
  7584   9   2385   2381   2380   2393
  7585  10   2379   2380   2393   2388
  7586  10   2379   2380   2393   2394
  7587  10   2379   2380   2393   2405
  7588  10   2381   2380   2393   2388
  7589  10   2381   2380   2393   2394
  7590  10   2381   2380   2393   2405
  7591   1   2380   2381   2382   2377
  7592   2   2380   2381   2382   2386
  7593   2   2377   2382   2381   2385
  7594   7   2385   2381   2382   2386
  7595   1   2392   2387   2388   2389
  7596   8   2392   2387   2388   2393
  7597   2   2389   2388   2387   2425
  7598   9   2425   2387   2388   2393
  7599   1   2388   2387   2392   2391
  7600   2   2388   2387   2392   2428
  7601   2   2391   2392   2387   2425
  7602   7   2425   2387   2392   2428
  7603   1   2387   2388   2389   2390
  7604   2   2387   2388   2389   2426
  7605   8   2390   2389   2388   2393
  7606   9   2426   2389   2388   2393
  7607  10   2387   2388   2393   2380
  7608  10   2387   2388   2393   2394
  7609  10   2387   2388   2393   2405
  7610  10   2389   2388   2393   2380
  7611  10   2389   2388   2393   2394
  7612  10   2389   2388   2393   2405
  7613   1   2388   2389   2390   2391
  7614   2   2388   2389   2390   2427
  7615   2   2391   2390   2389   2426
  7616   7   2426   2389   2390   2427
  7617   1   2389   2390   2391   2392
  7618   3   2389   2390   2391   2864
  7619   2   2392   2391   2390   2427
  7620   4   2427   2390   2391   2864
  7621   1   2390   2391   2392   2387
  7622   2   2390   2391   2392   2428
  7623   3   2387   2392   2391   2864
  7624   4   2428   2392   2391   2864
  7625   5   2390   2391   2864   2863
  7626   6   2390   2391   2864   2867
  7627   6   2390   2391   2864   2868
  7628   5   2392   2391   2864   2863
  7629   6   2392   2391   2864   2867
  7630   6   2392   2391   2864   2868
  7631  10   2395   2394   2393   2380
  7632  10   2399   2394   2393   2380
  7633  10   2395   2394   2393   2388
  7634  10   2399   2394   2393   2388
  7635  10   2395   2394   2393   2405
  7636  10   2399   2394   2393   2405
  7637  10   2404   2405   2393   2380
  7638  10   1680   2405   2393   2380
  7639  10   2404   2405   2393   2388
  7640  10   1680   2405   2393   2388
  7641  10   2404   2405   2393   2394
  7642  10   1680   2405   2393   2394
  7643   8   2396   2395   2394   2393
  7644   9   2429   2395   2394   2393
  7645   1   2399   2394   2395   2396
  7646   2   2399   2394   2395   2429
  7647   8   2398   2399   2394   2393
  7648   9   2432   2399   2394   2393
  7649   1   2395   2394   2399   2398
  7650   2   2395   2394   2399   2432
  7651   1   2394   2395   2396   2397
  7652   2   2394   2395   2396    990
  7653   2   2397   2396   2395   2429
  7654   7   2429   2395   2396    990
  7655   1   2395   2396   2397   2398
  7656   3   2395   2396   2397   2779
  7657   2   2398   2397   2396    990
  7658   4    990   2396   2397   2779
  7659   1   2396   2397   2398   2399
  7660   2   2396   2397   2398   2431
  7661   3   2399   2398   2397   2779
  7662   4   2431   2398   2397   2779
  7663   5   2396   2397   2779   1340
  7664   6   2396   2397   2779   2781
  7665   6   2396   2397   2779   2782
  7666   5   2398   2397   2779   1340
  7667   6   2398   2397   2779   2781
  7668   6   2398   2397   2779   2782
  7669   1   2397   2398   2399   2394
  7670   2   2397   2398   2399   2432
  7671   2   2394   2399   2398   2431
  7672   7   2431   2398   2399   2432
  7673   1   1685   2400   2401   2402
  7674   2   1685   2400   2401   2434
  7675   2   2402   2401   2400   2433
  7676   7   2433   2400   2401   2434
  7677   1   2400   2401   2402   2403
  7678   8   2400   2401   2402   2406
  7679   2   2403   2402   2401   2434
  7680   9   2434   2401   2402   2406
  7681   1   2401   2402   2403   1684
  7682   2   2401   2402   2403   2435
  7683   8   1684   2403   2402   2406
  7684   9   2435   2403   2402   2406
  7685  10   2401   2402   2406   2410
  7686  10   2401   2402   2406   2413
  7687  10   2401   2402   2406   2424
  7688  10   2403   2402   2406   2410
  7689  10   2403   2402   2406   2413
  7690  10   2403   2402   2406   2424
  7691   1   1683   2404   2405   1680
  7692   8   1683   2404   2405   2393
  7693   2   1680   2405   2404   2436
  7694   9   2436   2404   2405   2393
  7695  10   2409   2410   2406   2402
  7696  10   2411   2410   2406   2402
  7697  10   2409   2410   2406   2413
  7698  10   2411   2410   2406   2413
  7699  10   2409   2410   2406   2424
  7700  10   2411   2410   2406   2424
  7701  10   2414   2413   2406   2402
  7702  10   2418   2413   2406   2402
  7703  10   2414   2413   2406   2410
  7704  10   2418   2413   2406   2410
  7705  10   2414   2413   2406   2424
  7706  10   2418   2413   2406   2424
  7707  10   2423   2424   2406   2402
  7708  10   2419   2424   2406   2402
  7709  10   2423   2424   2406   2410
  7710  10   2419   2424   2406   2410
  7711  10   2423   2424   2406   2413
  7712  10   2419   2424   2406   2413
  7713   1   2412   2407   2408   2409
  7714   2   2412   2407   2408   2437
  7715   3   2409   2408   2407   2810
  7716   4   2437   2408   2407   2810
  7717   1   2408   2407   2412   2411
  7718   2   2408   2407   2412   2440
  7719   3   2411   2412   2407   2810
  7720   4   2440   2412   2407   2810
  7721   5   2408   2407   2810   2809
  7722   6   2408   2407   2810   2813
  7723   6   2408   2407   2810   2814
  7724   5   2412   2407   2810   2809
  7725   6   2412   2407   2810   2813
  7726   6   2412   2407   2810   2814
  7727   1   2407   2408   2409   2410
  7728   2   2407   2408   2409   2438
  7729   2   2410   2409   2408   2437
  7730   7   2437   2408   2409   2438
  7731   8   2408   2409   2410   2406
  7732   1   2408   2409   2410   2411
  7733   9   2438   2409   2410   2406
  7734   2   2411   2410   2409   2438
  7735   1   2409   2410   2411   2412
  7736   2   2409   2410   2411   2439
  7737   8   2412   2411   2410   2406
  7738   9   2439   2411   2410   2406
  7739   1   2410   2411   2412   2407
  7740   2   2410   2411   2412   2440
  7741   2   2407   2412   2411   2439
  7742   7   2439   2411   2412   2440
  7743   8   2415   2414   2413   2406
  7744   9   1001   2414   2413   2406
  7745   1   2418   2413   2414   2415
  7746   2   2418   2413   2414   1001
  7747   8   2417   2418   2413   2406
  7748   9   2444   2418   2413   2406
  7749   1   2414   2413   2418   2417
  7750   2   2414   2413   2418   2444
  7751   1   2413   2414   2415   2416
  7752   2   2413   2414   2415   1002
  7753   2   2416   2415   2414   1001
  7754   7   1001   2414   2415   1002
  7755   1   2414   2415   2416   2417
  7756   3   2414   2415   2416   2785
  7757   2   2417   2416   2415   1002
  7758   4   1002   2415   2416   2785
  7759   1   2415   2416   2417   2418
  7760   2   2415   2416   2417   2443
  7761   3   2418   2417   2416   2785
  7762   4   2443   2417   2416   2785
  7763   5   2415   2416   2785   2786
  7764   6   2415   2416   2785   1347
  7765   6   2415   2416   2785   2788
  7766   5   2417   2416   2785   2786
  7767   6   2417   2416   2785   1347
  7768   6   2417   2416   2785   2788
  7769   1   2416   2417   2418   2413
  7770   2   2416   2417   2418   2444
  7771   2   2413   2418   2417   2443
  7772   7   2443   2417   2418   2444
  7773   1   2424   2419   2420    981
  7774   2   2424   2419   2420   2446
  7775   2    981   2420   2419   2445
  7776   7   2445   2419   2420   2446
  7777   1   2420   2419   2424   2423
  7778   8   2420   2419   2424   2406
  7779   2   2423   2424   2419   2445
  7780   9   2445   2419   2424   2406
  7781   1    980   2421   2422    983
  7782   2    980   2421   2422   2447
  7783   3    983   2422   2421   2773
  7784   4   2447   2422   2421   2773
  7785   5    980   2421   2773   2774
  7786   6    980   2421   2773   2775
  7787   6    980   2421   2773   2776
  7788   5   2422   2421   2773   2774
  7789   6   2422   2421   2773   2775
  7790   6   2422   2421   2773   2776
  7791   1    982   2423   2424   2419
  7792   8    982   2423   2424   2406
  7793   2   2419   2424   2423   2448
  7794   9   2448   2423   2424   2406
  7795   1   2454   2449   2450   2451
  7796   2   2454   2449   2450   1735
  7797   3   2451   2450   2449   2047
  7798   4   1735   2450   2449   2047
  7799   1   2450   2449   2454   2453
  7800   2   2450   2449   2454   2458
  7801   3   2453   2454   2449   2047
  7802   4   2458   2454   2449   2047
  7803   1   2449   2450   2451   2452
  7804   2   2449   2450   2451   2456
  7805   2   2452   2451   2450   1735
  7806   7   1735   2450   2451   2456
  7807   1   2450   2451   2452   2453
  7808   8   2450   2451   2452   2465
  7809   2   2453   2452   2451   2456
  7810   9   2456   2451   2452   2465
  7811   1   2451   2452   2453   2454
  7812   2   2451   2452   2453   2457
  7813   8   2454   2453   2452   2465
  7814   9   2457   2453   2452   2465
  7815  10   2451   2452   2465   2460
  7816  10   2451   2452   2465   2466
  7817  10   2451   2452   2465   2477
  7818  10   2453   2452   2465   2460
  7819  10   2453   2452   2465   2466
  7820  10   2453   2452   2465   2477
  7821   1   2452   2453   2454   2449
  7822   2   2452   2453   2454   2458
  7823   2   2449   2454   2453   2457
  7824   7   2457   2453   2454   2458
  7825   1   2464   2459   2460   2461
  7826   8   2464   2459   2460   2465
  7827   2   2461   2460   2459   2497
  7828   9   2497   2459   2460   2465
  7829   1   2460   2459   2464   2463
  7830   2   2460   2459   2464   2500
  7831   2   2463   2464   2459   2497
  7832   7   2497   2459   2464   2500
  7833   1   2459   2460   2461   2462
  7834   2   2459   2460   2461   2498
  7835   8   2462   2461   2460   2465
  7836   9   2498   2461   2460   2465
  7837  10   2459   2460   2465   2452
  7838  10   2459   2460   2465   2466
  7839  10   2459   2460   2465   2477
  7840  10   2461   2460   2465   2452
  7841  10   2461   2460   2465   2466
  7842  10   2461   2460   2465   2477
  7843   1   2460   2461   2462   2463
  7844   2   2460   2461   2462   2499
  7845   2   2463   2462   2461   2498
  7846   7   2498   2461   2462   2499
  7847   1   2461   2462   2463   2464
  7848   3   2461   2462   2463   1346
  7849   2   2464   2463   2462   2499
  7850   4   2499   2462   2463   1346
  7851   1   2462   2463   2464   2459
  7852   2   2462   2463   2464   2500
  7853   3   2459   2464   2463   1346
  7854   4   2500   2464   2463   1346
  7855  10   2467   2466   2465   2452
  7856  10   2471   2466   2465   2452
  7857  10   2467   2466   2465   2460
  7858  10   2471   2466   2465   2460
  7859  10   2467   2466   2465   2477
  7860  10   2471   2466   2465   2477
  7861  10   2472   2477   2465   2452
  7862  10   2476   2477   2465   2452
  7863  10   2472   2477   2465   2460
  7864  10   2476   2477   2465   2460
  7865  10   2472   2477   2465   2466
  7866  10   2476   2477   2465   2466
  7867   8   2468   2467   2466   2465
  7868   9   2501   2467   2466   2465
  7869   1   2471   2466   2467   2468
  7870   2   2471   2466   2467   2501
  7871   8   2470   2471   2466   2465
  7872   9   2504   2471   2466   2465
  7873   1   2467   2466   2471   2470
  7874   2   2467   2466   2471   2504
  7875   1   2466   2467   2468   2469
  7876   2   2466   2467   2468   2502
  7877   2   2469   2468   2467   2501
  7878   7   2501   2467   2468   2502
  7879   1   2467   2468   2469   2470
  7880   3   2467   2468   2469   2822
  7881   2   2470   2469   2468   2502
  7882   4   2502   2468   2469   2822
  7883   1   2468   2469   2470   2471
  7884   2   2468   2469   2470   2503
  7885   3   2471   2470   2469   2822
  7886   4   2503   2470   2469   2822
  7887   5   2468   2469   2822   2821
  7888   6   2468   2469   2822   2825
  7889   6   2468   2469   2822   2826
  7890   5   2470   2469   2822   2821
  7891   6   2470   2469   2822   2825
  7892   6   2470   2469   2822   2826
  7893   1   2469   2470   2471   2466
  7894   2   2469   2470   2471   2504
  7895   2   2466   2471   2470   2503
  7896   7   2503   2470   2471   2504
  7897   1   2477   2472   2473   2474
  7898   2   2477   2472   2473   2506
  7899   2   2474   2473   2472   2505
  7900   7   2505   2472   2473   2506
  7901   8   2473   2472   2477   2465
  7902   1   2473   2472   2477   2476
  7903   9   2505   2472   2477   2465
  7904   2   2476   2477   2472   2505
  7905   1   2472   2473   2474   2475
  7906   8   2472   2473   2474   2478
  7907   2   2475   2474   2473   2506
  7908   9   2506   2473   2474   2478
  7909   1   2473   2474   2475   2476
  7910   2   2473   2474   2475   2507
  7911   8   2476   2475   2474   2478
  7912   9   2507   2475   2474   2478
  7913  10   2473   2474   2478   2482
  7914  10   2473   2474   2478   2485
  7915  10   2473   2474   2478   2496
  7916  10   2475   2474   2478   2482
  7917  10   2475   2474   2478   2485
  7918  10   2475   2474   2478   2496
  7919   1   2474   2475   2476   2477
  7920   2   2474   2475   2476   2508
  7921   2   2477   2476   2475   2507
  7922   7   2507   2475   2476   2508
  7923   1   2475   2476   2477   2472
  7924   8   2475   2476   2477   2465
  7925   2   2472   2477   2476   2508
  7926   9   2508   2476   2477   2465
  7927  10   2481   2482   2478   2474
  7928  10   2483   2482   2478   2474
  7929  10   2481   2482   2478   2485
  7930  10   2483   2482   2478   2485
  7931  10   2481   2482   2478   2496
  7932  10   2483   2482   2478   2496
  7933  10   2486   2485   2478   2474
  7934  10   2490   2485   2478   2474
  7935  10   2486   2485   2478   2482
  7936  10   2490   2485   2478   2482
  7937  10   2486   2485   2478   2496
  7938  10   2490   2485   2478   2496
  7939  10   2495   2496   2478   2474
  7940  10   2491   2496   2478   2474
  7941  10   2495   2496   2478   2482
  7942  10   2491   2496   2478   2482
  7943  10   2495   2496   2478   2485
  7944  10   2491   2496   2478   2485
  7945   1   2484   2479   2480   2481
  7946   2   2484   2479   2480   2509
  7947   3   2481   2480   2479   2762
  7948   4   2509   2480   2479   2762
  7949   1   2480   2479   2484   2483
  7950   2   2480   2479   2484   2512
  7951   3   2483   2484   2479   2762
  7952   4   2512   2484   2479   2762
  7953   5   2480   2479   2762   2761
  7954   6   2480   2479   2762   2765
  7955   6   2480   2479   2762   2766
  7956   5   2484   2479   2762   2761
  7957   6   2484   2479   2762   2765
  7958   6   2484   2479   2762   2766
  7959   1   2479   2480   2481   2482
  7960   2   2479   2480   2481   2510
  7961   2   2482   2481   2480   2509
  7962   7   2509   2480   2481   2510
  7963   8   2480   2481   2482   2478
  7964   1   2480   2481   2482   2483
  7965   9   2510   2481   2482   2478
  7966   2   2483   2482   2481   2510
  7967   8   2484   2483   2482   2478
  7968   9   2511   2483   2482   2478
  7969   1   2481   2482   2483   2484
  7970   2   2481   2482   2483   2511
  7971   1   2482   2483   2484   2479
  7972   2   2482   2483   2484   2512
  7973   2   2479   2484   2483   2511
  7974   7   2511   2483   2484   2512
  7975   8   2487   2486   2485   2478
  7976   9   2513   2486   2485   2478
  7977   1   2490   2485   2486   2487
  7978   2   2490   2485   2486   2513
  7979   8   2489   2490   2485   2478
  7980   9   2516   2490   2485   2478
  7981   1   2486   2485   2490   2489
  7982   2   2486   2485   2490   2516
  7983   1   2485   2486   2487   2488
  7984   2   2485   2486   2487   2514
  7985   2   2488   2487   2486   2513
  7986   7   2513   2486   2487   2514
  7987   1   2486   2487   2488   2489
  7988   3   2486   2487   2488   2755
  7989   2   2489   2488   2487   2514
  7990   4   2514   2487   2488   2755
  7991   1   2487   2488   2489   2490
  7992   2   2487   2488   2489   2515
  7993   3   2490   2489   2488   2755
  7994   4   2515   2489   2488   2755
  7995   5   2487   2488   2755   2756
  7996   6   2487   2488   2755   2757
  7997   6   2487   2488   2755   2758
  7998   5   2489   2488   2755   2756
  7999   6   2489   2488   2755   2757
  8000   6   2489   2488   2755   2758
  8001   1   2488   2489   2490   2485
  8002   2   2488   2489   2490   2516
  8003   2   2485   2490   2489   2515
  8004   7   2515   2489   2490   2516
  8005   1   2496   2491   2492   2493
  8006   2   2496   2491   2492   2518
  8007   2   2493   2492   2491   2517
  8008   7   2517   2491   2492   2518
  8009   1   2492   2491   2496   2495
  8010   8   2492   2491   2496   2478
  8011   2   2495   2496   2491   2517
  8012   9   2517   2491   2496   2478
  8013   1   2491   2492   2493   2494
  8014   3   2491   2492   2493   2816
  8015   2   2494   2493   2492   2518
  8016   4   2518   2492   2493   2816
  8017   1   2492   2493   2494   2495
  8018   2   2492   2493   2494   2519
  8019   3   2495   2494   2493   2816
  8020   4   2519   2494   2493   2816
  8021   5   2492   2493   2816   2815
  8022   6   2492   2493   2816   2819
  8023   6   2492   2493   2816   2820
  8024   5   2494   2493   2816   2815
  8025   6   2494   2493   2816   2819
  8026   6   2494   2493   2816   2820
  8027   1   2493   2494   2495   2496
  8028   2   2493   2494   2495   2520
  8029   2   2496   2495   2494   2519
  8030   7   2519   2494   2495   2520
  8031   8   2494   2495   2496   2478
  8032   1   2494   2495   2496   2491
  8033   9   2520   2495   2496   2478
  8034   2   2491   2496   2495   2520
  8035   1   2526   2521   2522   2523
  8036   2   2526   2521   2522   1807
  8037   3   2523   2522   2521   2768
  8038   4   1807   2522   2521   2768
  8039   1   2522   2521   2526   2525
  8040   2   2522   2521   2526   2530
  8041   3   2525   2526   2521   2768
  8042   4   2530   2526   2521   2768
  8043   5   2522   2521   2768   2047
  8044   6   2522   2521   2768   2051
  8045   6   2522   2521   2768   2772
  8046   5   2526   2521   2768   2047
  8047   6   2526   2521   2768   2051
  8048   6   2526   2521   2768   2772
  8049   1   2521   2522   2523   2524
  8050   2   2521   2522   2523   2528
  8051   2   2524   2523   2522   1807
  8052   7   1807   2522   2523   2528
  8053   1   2522   2523   2524   2525
  8054   8   2522   2523   2524   2537
  8055   2   2525   2524   2523   2528
  8056   9   2528   2523   2524   2537
  8057   1   2523   2524   2525   2526
  8058   2   2523   2524   2525   2529
  8059   8   2526   2525   2524   2537
  8060   9   2529   2525   2524   2537
  8061  10   2523   2524   2537   2532
  8062  10   2523   2524   2537   2538
  8063  10   2523   2524   2537   2549
  8064  10   2525   2524   2537   2532
  8065  10   2525   2524   2537   2538
  8066  10   2525   2524   2537   2549
  8067   1   2524   2525   2526   2521
  8068   2   2524   2525   2526   2530
  8069   2   2521   2526   2525   2529
  8070   7   2529   2525   2526   2530
  8071   1   2536   2531   2532   2533
  8072   8   2536   2531   2532   2537
  8073   2   2533   2532   2531   2569
  8074   9   2569   2531   2532   2537
  8075   1   2532   2531   2536   2535
  8076   2   2532   2531   2536   2572
  8077   2   2535   2536   2531   2569
  8078   7   2569   2531   2536   2572
  8079   1   2531   2532   2533   2534
  8080   2   2531   2532   2533   2570
  8081   8   2534   2533   2532   2537
  8082   9   2570   2533   2532   2537
  8083  10   2531   2532   2537   2524
  8084  10   2531   2532   2537   2538
  8085  10   2531   2532   2537   2549
  8086  10   2533   2532   2537   2524
  8087  10   2533   2532   2537   2538
  8088  10   2533   2532   2537   2549
  8089   1   2532   2533   2534   2535
  8090   2   2532   2533   2534   2571
  8091   2   2535   2534   2533   2570
  8092   7   2570   2533   2534   2571
  8093   1   2533   2534   2535   2536
  8094   3   2533   2534   2535   2804
  8095   2   2536   2535   2534   2571
  8096   4   2571   2534   2535   2804
  8097   1   2534   2535   2536   2531
  8098   2   2534   2535   2536   2572
  8099   3   2531   2536   2535   2804
  8100   4   2572   2536   2535   2804
  8101   5   2534   2535   2804   2803
  8102   6   2534   2535   2804   2807
  8103   6   2534   2535   2804   2808
  8104   5   2536   2535   2804   2803
  8105   6   2536   2535   2804   2807
  8106   6   2536   2535   2804   2808
  8107  10   2539   2538   2537   2524
  8108  10   2543   2538   2537   2524
  8109  10   2539   2538   2537   2532
  8110  10   2543   2538   2537   2532
  8111  10   2539   2538   2537   2549
  8112  10   2543   2538   2537   2549
  8113  10   2544   2549   2537   2524
  8114  10   2548   2549   2537   2524
  8115  10   2544   2549   2537   2532
  8116  10   2548   2549   2537   2532
  8117  10   2544   2549   2537   2538
  8118  10   2548   2549   2537   2538
  8119   8   2540   2539   2538   2537
  8120   9   2573   2539   2538   2537
  8121   1   2543   2538   2539   2540
  8122   2   2543   2538   2539   2573
  8123   8   2542   2543   2538   2537
  8124   9   2576   2543   2538   2537
  8125   1   2539   2538   2543   2542
  8126   2   2539   2538   2543   2576
  8127   1   2538   2539   2540   2541
  8128   2   2538   2539   2540   2574
  8129   2   2541   2540   2539   2573
  8130   7   2573   2539   2540   2574
  8131   1   2539   2540   2541   2542
  8132   3   2539   2540   2541   2851
  8133   2   2542   2541   2540   2574
  8134   4   2574   2540   2541   2851
  8135   1   2540   2541   2542   2543
  8136   2   2540   2541   2542   2575
  8137   3   2543   2542   2541   2851
  8138   4   2575   2542   2541   2851
  8139   5   2540   2541   2851   2852
  8140   6   2540   2541   2851   2853
  8141   6   2540   2541   2851   2854
  8142   5   2542   2541   2851   2852
  8143   6   2542   2541   2851   2853
  8144   6   2542   2541   2851   2854
  8145   1   2541   2542   2543   2538
  8146   2   2541   2542   2543   2576
  8147   2   2538   2543   2542   2575
  8148   7   2575   2542   2543   2576
  8149   1   2549   2544   2545   2546
  8150   2   2549   2544   2545   2578
  8151   2   2546   2545   2544   2577
  8152   7   2577   2544   2545   2578
  8153   8   2545   2544   2549   2537
  8154   1   2545   2544   2549   2548
  8155   9   2577   2544   2549   2537
  8156   2   2548   2549   2544   2577
  8157   1   2544   2545   2546   2547
  8158   8   2544   2545   2546   2550
  8159   2   2547   2546   2545   2578
  8160   9   2578   2545   2546   2550
  8161   1   2545   2546   2547   2548
  8162   2   2545   2546   2547   2579
  8163   8   2548   2547   2546   2550
  8164   9   2579   2547   2546   2550
  8165  10   2545   2546   2550   2554
  8166  10   2545   2546   2550   2557
  8167  10   2545   2546   2550   2568
  8168  10   2547   2546   2550   2554
  8169  10   2547   2546   2550   2557
  8170  10   2547   2546   2550   2568
  8171   1   2546   2547   2548   2549
  8172   2   2546   2547   2548   2580
  8173   2   2549   2548   2547   2579
  8174   7   2579   2547   2548   2580
  8175   1   2547   2548   2549   2544
  8176   8   2547   2548   2549   2537
  8177   2   2544   2549   2548   2580
  8178   9   2580   2548   2549   2537
  8179  10   2553   2554   2550   2546
  8180  10   2555   2554   2550   2546
  8181  10   2553   2554   2550   2557
  8182  10   2555   2554   2550   2557
  8183  10   2553   2554   2550   2568
  8184  10   2555   2554   2550   2568
  8185  10   2558   2557   2550   2546
  8186  10   2562   2557   2550   2546
  8187  10   2558   2557   2550   2554
  8188  10   2562   2557   2550   2554
  8189  10   2558   2557   2550   2568
  8190  10   2562   2557   2550   2568
  8191  10   2567   2568   2550   2546
  8192  10   2563   2568   2550   2546
  8193  10   2567   2568   2550   2554
  8194  10   2563   2568   2550   2554
  8195  10   2567   2568   2550   2557
  8196  10   2563   2568   2550   2557
  8197   1   2556   2551   2552   2553
  8198   2   2556   2551   2552   2581
  8199   3   2553   2552   2551   2744
  8200   4   2581   2552   2551   2744
  8201   1   2552   2551   2556   2555
  8202   2   2552   2551   2556   2584
  8203   3   2555   2556   2551   2744
  8204   4   2584   2556   2551   2744
  8205   5   2552   2551   2744   2743
  8206   6   2552   2551   2744   2747
  8207   6   2552   2551   2744   2748
  8208   5   2556   2551   2744   2743
  8209   6   2556   2551   2744   2747
  8210   6   2556   2551   2744   2748
  8211   1   2551   2552   2553   2554
  8212   2   2551   2552   2553   2582
  8213   2   2554   2553   2552   2581
  8214   7   2581   2552   2553   2582
  8215   8   2552   2553   2554   2550
  8216   1   2552   2553   2554   2555
  8217   9   2582   2553   2554   2550
  8218   2   2555   2554   2553   2582
  8219   1   2553   2554   2555   2556
  8220   2   2553   2554   2555   2583
  8221   8   2556   2555   2554   2550
  8222   9   2583   2555   2554   2550
  8223   1   2554   2555   2556   2551
  8224   2   2554   2555   2556   2584
  8225   2   2551   2556   2555   2583
  8226   7   2583   2555   2556   2584
  8227   8   2559   2558   2557   2550
  8228   9   2585   2558   2557   2550
  8229   1   2562   2557   2558   2559
  8230   2   2562   2557   2558   2585
  8231   8   2561   2562   2557   2550
  8232   9   2588   2562   2557   2550
  8233   1   2558   2557   2562   2561
  8234   2   2558   2557   2562   2588
  8235   1   2557   2558   2559   2560
  8236   2   2557   2558   2559   2586
  8237   2   2560   2559   2558   2585
  8238   7   2585   2558   2559   2586
  8239   1   2558   2559   2560   2561
  8240   3   2558   2559   2560   1310
  8241   2   2561   2560   2559   2586
  8242   4   2586   2559   2560   1310
  8243   1   2559   2560   2561   2562
  8244   2   2559   2560   2561   2587
  8245   3   2562   2561   2560   1310
  8246   4   2587   2561   2560   1310
  8247   1   2560   2561   2562   2557
  8248   2   2560   2561   2562   2588
  8249   2   2557   2562   2561   2587
  8250   7   2587   2561   2562   2588
  8251   1   2568   2563   2564   2565
  8252   2   2568   2563   2564   2590
  8253   2   2565   2564   2563   2589
  8254   7   2589   2563   2564   2590
  8255   1   2564   2563   2568   2567
  8256   8   2564   2563   2568   2550
  8257   2   2567   2568   2563   2589
  8258   9   2589   2563   2568   2550
  8259   1   2563   2564   2565   2566
  8260   3   2563   2564   2565   2846
  8261   2   2566   2565   2564   2590
  8262   4   2590   2564   2565   2846
  8263   1   2564   2565   2566   2567
  8264   2   2564   2565   2566   2591
  8265   3   2567   2566   2565   2846
  8266   4   2591   2566   2565   2846
  8267   5   2564   2565   2846   2845
  8268   6   2564   2565   2846   2849
  8269   6   2564   2565   2846   2850
  8270   5   2566   2565   2846   2845
  8271   6   2566   2565   2846   2849
  8272   6   2566   2565   2846   2850
  8273   1   2565   2566   2567   2568
  8274   2   2565   2566   2567   2592
  8275   2   2568   2567   2566   2591
  8276   7   2591   2566   2567   2592
  8277   1   2566   2567   2568   2563
  8278   8   2566   2567   2568   2550
  8279   2   2563   2568   2567   2592
  8280   9   2592   2567   2568   2550
  8281   1   2598   2593   2594   2595
  8282   2   2598   2593   2594   2599
  8283   3   2595   2594   2593   2737
  8284   4   2599   2594   2593   2737
  8285   1   2594   2593   2598   2597
  8286   2   2594   2593   2598   2602
  8287   3   2597   2598   2593   2737
  8288   4   2602   2598   2593   2737
  8289   5   2594   2593   2737   2738
  8290   6   2594   2593   2737   2739
  8291   6   2594   2593   2737   2740
  8292   5   2598   2593   2737   2738
  8293   6   2598   2593   2737   2739
  8294   6   2598   2593   2737   2740
  8295   1   2593   2594   2595   2596
  8296   2   2593   2594   2595   2600
  8297   2   2596   2595   2594   2599
  8298   7   2599   2594   2595   2600
  8299   1   2594   2595   2596   2597
  8300   8   2594   2595   2596   2609
  8301   2   2597   2596   2595   2600
  8302   9   2600   2595   2596   2609
  8303   1   2595   2596   2597   2598
  8304   2   2595   2596   2597   2601
  8305   8   2598   2597   2596   2609
  8306   9   2601   2597   2596   2609
  8307  10   2595   2596   2609   1164
  8308  10   2595   2596   2609   1170
  8309  10   2595   2596   2609   2621
  8310  10   2597   2596   2609   1164
  8311  10   2597   2596   2609   1170
  8312  10   2597   2596   2609   2621
  8313   1   2596   2597   2598   2593
  8314   2   2596   2597   2598   2602
  8315   2   2593   2598   2597   2601
  8316   7   2601   2597   2598   2602
  8317   1   2608   2603   2604   2605
  8318   8   2608   2603   2604   1169
  8319   2   2605   2604   2603   2641
  8320   9   2641   2603   2604   1169
  8321   1   2604   2603   2608   2607
  8322   2   2604   2603   2608   2644
  8323   2   2607   2608   2603   2641
  8324   7   2641   2603   2608   2644
  8325   1   2603   2604   2605   2606
  8326   2   2603   2604   2605   2642
  8327   8   2606   2605   2604   1169
  8328   9   2642   2605   2604   1169
  8329   1   2604   2605   2606   2607
  8330   2   2604   2605   2606   2643
  8331   2   2607   2606   2605   2642
  8332   7   2642   2605   2606   2643
  8333   1   2605   2606   2607   2608
  8334   3   2605   2606   2607   2857
  8335   2   2608   2607   2606   2643
  8336   4   2643   2606   2607   2857
  8337   1   2606   2607   2608   2603
  8338   2   2606   2607   2608   2644
  8339   3   2603   2608   2607   2857
  8340   4   2644   2608   2607   2857
  8341   5   2606   2607   2857   2858
  8342   6   2606   2607   2857   2859
  8343   6   2606   2607   2857   2860
  8344   5   2608   2607   2857   2858
  8345   6   2608   2607   2857   2859
  8346   6   2608   2607   2857   2860
  8347  10   2620   2621   2609   1164
  8348  10   2616   2621   2609   1164
  8349  10   2620   2621   2609   2596
  8350  10   2616   2621   2609   2596
  8351  10   2620   2621   2609   1170
  8352  10   2616   2621   2609   1170
  8353   8   2612   2611   2610   1169
  8354   9   2645   2611   2610   1169
  8355   1   1175   2610   2611   2612
  8356   2   1175   2610   2611   2645
  8357   1   2610   2611   2612   2613
  8358   2   2610   2611   2612   2646
  8359   2   2613   2612   2611   2645
  8360   7   2645   2611   2612   2646
  8361   1   2611   2612   2613   1174
  8362   3   2611   2612   2613   2798
  8363   2   1174   2613   2612   2646
  8364   4   2646   2612   2613   2798
  8365   5   2612   2613   2798   2797
  8366   6   2612   2613   2798   2801
  8367   6   2612   2613   2798   2802
  8368   5   1174   2613   2798   2797
  8369   6   1174   2613   2798   2801
  8370   6   1174   2613   2798   2802
  8371   1   1173   2614   2615   1170
  8372   2   1173   2614   2615   2648
  8373   2   1170   2615   2614   2647
  8374   7   2647   2614   2615   2648
  8375   1   2621   2616   2617   2618
  8376   2   2621   2616   2617   1210
  8377   2   2618   2617   2616   1209
  8378   7   1209   2616   2617   1210
  8379   1   2617   2616   2621   2620
  8380   8   2617   2616   2621   2609
  8381   2   2620   2621   2616   1209
  8382   9   1209   2616   2621   2609
  8383   1   2616   2617   2618   2619
  8384   8   2616   2617   2618   2622
  8385   2   2619   2618   2617   1210
  8386   9   1210   2617   2618   2622
  8387   1   2617   2618   2619   2620
  8388   2   2617   2618   2619   2651
  8389   8   2620   2619   2618   2622
  8390   9   2651   2619   2618   2622
  8391  10   2617   2618   2622   2626
  8392  10   2617   2618   2622   2629
  8393  10   2617   2618   2622   1200
  8394  10   2619   2618   2622   2626
  8395  10   2619   2618   2622   2629
  8396  10   2619   2618   2622   1200
  8397   1   2618   2619   2620   2621
  8398   2   2618   2619   2620   2652
  8399   2   2621   2620   2619   2651
  8400   7   2651   2619   2620   2652
  8401   8   2619   2620   2621   2609
  8402   1   2619   2620   2621   2616
  8403   9   2652   2620   2621   2609
  8404   2   2616   2621   2620   2652
  8405  10   2625   2626   2622   2618
  8406  10   1187   2626   2622   2618
  8407  10   2625   2626   2622   2629
  8408  10   1187   2626   2622   2629
  8409  10   2625   2626   2622   1200
  8410  10   1187   2626   2622   1200
  8411  10   2630   2629   2622   2618
  8412  10   2634   2629   2622   2618
  8413  10   2630   2629   2622   2626
  8414  10   2634   2629   2622   2626
  8415  10   2630   2629   2622   1200
  8416  10   2634   2629   2622   1200
  8417   1   2628   2623   2624   1185
  8418   2   2628   2623   2624   2653
  8419   3   1185   2624   2623   2756
  8420   4   2653   2624   2623   2756
  8421   1   2624   2623   2628   2627
  8422   2   2624   2623   2628   2656
  8423   3   2627   2628   2623   2756
  8424   4   2656   2628   2623   2756
  8425   5   2624   2623   2756   2755
  8426   6   2624   2623   2756   2759
  8427   6   2624   2623   2756   2760
  8428   5   2628   2623   2756   2755
  8429   6   2628   2623   2756   2759
  8430   6   2628   2623   2756   2760
  8431   8   1184   2625   2626   2622
  8432   1   1184   2625   2626   1187
  8433   9   2654   2625   2626   2622
  8434   2   1187   2626   2625   2654
  8435   1   1186   2627   2628   2623
  8436   2   1186   2627   2628   2656
  8437   2   2623   2628   2627   2655
  8438   7   2655   2627   2628   2656
  8439   8   2631   2630   2629   2622
  8440   9   2657   2630   2629   2622
  8441   1   2634   2629   2630   2631
  8442   2   2634   2629   2630   2657
  8443   8   2633   2634   2629   2622
  8444   9   2660   2634   2629   2622
  8445   1   2630   2629   2634   2633
  8446   2   2630   2629   2634   2660
  8447   1   2629   2630   2631   2632
  8448   2   2629   2630   2631   2658
  8449   2   2632   2631   2630   2657
  8450   7   2657   2630   2631   2658
  8451   1   2630   2631   2632   2633
  8452   3   2630   2631   2632   2761
  8453   2   2633   2632   2631   2658
  8454   4   2658   2631   2632   2761
  8455   1   2631   2632   2633   2634
  8456   2   2631   2632   2633   2659
  8457   3   2634   2633   2632   2761
  8458   4   2659   2633   2632   2761
  8459   5   2631   2632   2761   2762
  8460   6   2631   2632   2761   2763
  8461   6   2631   2632   2761   2764
  8462   5   2633   2632   2761   2762
  8463   6   2633   2632   2761   2763
  8464   6   2633   2632   2761   2764
  8465   1   2632   2633   2634   2629
  8466   2   2632   2633   2634   2660
  8467   2   2629   2634   2633   2659
  8468   7   2659   2633   2634   2660
  8469   1   2640   2635   2636   2637
  8470   2   2640   2635   2636   2662
  8471   2   2637   2636   2635   1221
  8472   7   1221   2635   2636   2662
  8473   1   2636   2635   2640   2639
  8474   8   2636   2635   2640   1182
  8475   2   2639   2640   2635   1221
  8476   9   1221   2635   2640   1182
  8477   1   2635   2636   2637   2638
  8478   3   2635   2636   2637   2791
  8479   2   2638   2637   2636   2662
  8480   4   2662   2636   2637   2791
  8481   1   2636   2637   2638   2639
  8482   2   2636   2637   2638   2663
  8483   3   2639   2638   2637   2791
  8484   4   2663   2638   2637   2791
  8485   5   2636   2637   2791   2792
  8486   6   2636   2637   2791   2793
  8487   6   2636   2637   2791   2794
  8488   5   2638   2637   2791   2792
  8489   6   2638   2637   2791   2793
  8490   6   2638   2637   2791   2794
  8491   1   2637   2638   2639   2640
  8492   2   2637   2638   2639   2664
  8493   2   2640   2639   2638   2663
  8494   7   2663   2638   2639   2664
  8495   1   2638   2639   2640   2635
  8496   8   2638   2639   2640   1182
  8497   2   2635   2640   2639   2664
  8498   9   2664   2639   2640   1182
  8499   1   2670   2665   2666   2667
  8500   2   2670   2665   2666   2671
  8501   3   2667   2666   2665   2738
  8502   4   2671   2666   2665   2738
  8503   1   2666   2665   2670   1229
  8504   2   2666   2665   2670   1234
  8505   3   1229   2670   2665   2738
  8506   4   1234   2670   2665   2738
  8507   5   2666   2665   2738   2737
  8508   6   2666   2665   2738   2741
  8509   6   2666   2665   2738   2742
  8510   5   2670   2665   2738   2737
  8511   6   2670   2665   2738   2741
  8512   6   2670   2665   2738   2742
  8513   1   2665   2666   2667   2668
  8514   2   2665   2666   2667   2672
  8515   2   2668   2667   2666   2671
  8516   7   2671   2666   2667   2672
  8517   1   2666   2667   2668   1229
  8518   8   2666   2667   2668   2681
  8519   2   1229   2668   2667   2672
  8520   9   2672   2667   2668   2681
  8521  10   2667   2668   2681   2676
  8522  10   2667   2668   2681   2682
  8523  10   2667   2668   2681   1253
  8524  10   1229   2668   2681   2676
  8525  10   1229   2668   2681   2682
  8526  10   1229   2668   2681   1253
  8527   1   2680   2675   2676   2677
  8528   8   2680   2675   2676   2681
  8529   2   2677   2676   2675   2713
  8530   9   2713   2675   2676   2681
  8531   1   2676   2675   2680   2679
  8532   2   2676   2675   2680   2716
  8533   2   2679   2680   2675   2713
  8534   7   2713   2675   2680   2716
  8535   1   2675   2676   2677   2678
  8536   2   2675   2676   2677   2714
  8537   8   2678   2677   2676   2681
  8538   9   2714   2677   2676   2681
  8539  10   2675   2676   2681   2668
  8540  10   2675   2676   2681   2682
  8541  10   2675   2676   2681   1253
  8542  10   2677   2676   2681   2668
  8543  10   2677   2676   2681   2682
  8544  10   2677   2676   2681   1253
  8545   1   2676   2677   2678   2679
  8546   2   2676   2677   2678   2715
  8547   2   2679   2678   2677   2714
  8548   7   2714   2677   2678   2715
  8549   1   2677   2678   2679   2680
  8550   3   2677   2678   2679   2828
  8551   2   2680   2679   2678   2715
  8552   4   2715   2678   2679   2828
  8553   1   2678   2679   2680   2675
  8554   2   2678   2679   2680   2716
  8555   3   2675   2680   2679   2828
  8556   4   2716   2680   2679   2828
  8557   5   2678   2679   2828   2827
  8558   6   2678   2679   2828   2831
  8559   6   2678   2679   2828   2832
  8560   5   2680   2679   2828   2827
  8561   6   2680   2679   2828   2831
  8562   6   2680   2679   2828   2832
  8563  10   2683   2682   2681   2668
  8564  10   2687   2682   2681   2668
  8565  10   2683   2682   2681   2676
  8566  10   2687   2682   2681   2676
  8567  10   2683   2682   2681   1253
  8568  10   2687   2682   2681   1253
  8569   8   2684   2683   2682   2681
  8570   9   2717   2683   2682   2681
  8571   1   2687   2682   2683   2684
  8572   2   2687   2682   2683   2717
  8573   8   2686   2687   2682   2681
  8574   9   1280   2687   2682   2681
  8575   1   2683   2682   2687   2686
  8576   2   2683   2682   2687   1280
  8577   1   2682   2683   2684   2685
  8578   2   2682   2683   2684   2718
  8579   2   2685   2684   2683   2717
  8580   7   2717   2683   2684   2718
  8581   1   2683   2684   2685   2686
  8582   3   2683   2684   2685   2780
  8583   2   2686   2685   2684   2718
  8584   4   2718   2684   2685   2780
  8585   1   2684   2685   2686   2687
  8586   2   2684   2685   2686   2719
  8587   3   2687   2686   2685   2780
  8588   4   2719   2686   2685   2780
  8589   5   2684   2685   2780   1339
  8590   6   2684   2685   2780   2783
  8591   6   2684   2685   2780   2784
  8592   5   2686   2685   2780   1339
  8593   6   2686   2685   2780   2783
  8594   6   2686   2685   2780   2784
  8595   1   2685   2686   2687   2682
  8596   2   2685   2686   2687   1280
  8597   2   2682   2687   2686   2719
  8598   7   2719   2686   2687   1280
  8599   1   2693   2688   2689   2690
  8600   2   2693   2688   2689   2722
  8601   2   2690   2689   2688   2721
  8602   7   2721   2688   2689   2722
  8603   1   2689   2688   2693   2692
  8604   8   2689   2688   2693   1241
  8605   2   2692   2693   2688   2721
  8606   9   2721   2688   2693   1241
  8607   1   2688   2689   2690   2691
  8608   8   2688   2689   2690   2694
  8609   2   2691   2690   2689   2722
  8610   9   2722   2689   2690   2694
  8611   1   2689   2690   2691   2692
  8612   2   2689   2690   2691   2723
  8613   8   2692   2691   2690   2694
  8614   9   2723   2691   2690   2694
  8615  10   2689   2690   2694   2698
  8616  10   2689   2690   2694   2701
  8617  10   2689   2690   2694   2712
  8618  10   2691   2690   2694   2698
  8619  10   2691   2690   2694   2701
  8620  10   2691   2690   2694   2712
  8621   1   2690   2691   2692   2693
  8622   2   2690   2691   2692   2724
  8623   2   2693   2692   2691   2723
  8624   7   2723   2691   2692   2724
  8625   1   2691   2692   2693   2688
  8626   8   2691   2692   2693   1241
  8627   2   2688   2693   2692   2724
  8628   9   2724   2692   2693   1241
  8629  10   2697   2698   2694   2690
  8630  10   2699   2698   2694   2690
  8631  10   2697   2698   2694   2701
  8632  10   2699   2698   2694   2701
  8633  10   2697   2698   2694   2712
  8634  10   2699   2698   2694   2712
  8635  10   2702   2701   2694   2690
  8636  10   2706   2701   2694   2690
  8637  10   2702   2701   2694   2698
  8638  10   2706   2701   2694   2698
  8639  10   2702   2701   2694   2712
  8640  10   2706   2701   2694   2712
  8641  10   2707   2712   2694   2690
  8642  10   2711   2712   2694   2690
  8643  10   2707   2712   2694   2698
  8644  10   2711   2712   2694   2698
  8645  10   2707   2712   2694   2701
  8646  10   2711   2712   2694   2701
  8647   1   2700   2695   2696   2697
  8648   2   2700   2695   2696   2725
  8649   3   2697   2696   2695   2749
  8650   4   2725   2696   2695   2749
  8651   1   2696   2695   2700   2699
  8652   2   2696   2695   2700   2728
  8653   3   2699   2700   2695   2749
  8654   4   2728   2700   2695   2749
  8655   5   2696   2695   2749   2750
  8656   6   2696   2695   2749   2751
  8657   6   2696   2695   2749   2752
  8658   5   2700   2695   2749   2750
  8659   6   2700   2695   2749   2751
  8660   6   2700   2695   2749   2752
  8661   1   2695   2696   2697   2698
  8662   2   2695   2696   2697   2726
  8663   2   2698   2697   2696   2725
  8664   7   2725   2696   2697   2726
  8665   8   2696   2697   2698   2694
  8666   1   2696   2697   2698   2699
  8667   9   2726   2697   2698   2694
  8668   2   2699   2698   2697   2726
  8669   8   2700   2699   2698   2694
  8670   9   2727   2699   2698   2694
  8671   1   2697   2698   2699   2700
  8672   2   2697   2698   2699   2727
  8673   1   2698   2699   2700   2695
  8674   2   2698   2699   2700   2728
  8675   2   2695   2700   2699   2727
  8676   7   2727   2699   2700   2728
  8677   8   2703   2702   2701   2694
  8678   9   2729   2702   2701   2694
  8679   1   2706   2701   2702   2703
  8680   2   2706   2701   2702   2729
  8681   8   2705   2706   2701   2694
  8682   9   2732   2706   2701   2694
  8683   1   2702   2701   2706   2705
  8684   2   2702   2701   2706   2732
  8685   1   2701   2702   2703   2704
  8686   2   2701   2702   2703   2730
  8687   2   2704   2703   2702   2729
  8688   7   2729   2702   2703   2730
  8689   1   2702   2703   2704   2705
  8690   3   2702   2703   2704   2743
  8691   2   2705   2704   2703   2730
  8692   4   2730   2703   2704   2743
  8693   1   2703   2704   2705   2706
  8694   2   2703   2704   2705   2731
  8695   3   2706   2705   2704   2743
  8696   4   2731   2705   2704   2743
  8697   5   2703   2704   2743   2744
  8698   6   2703   2704   2743   2745
  8699   6   2703   2704   2743   2746
  8700   5   2705   2704   2743   2744
  8701   6   2705   2704   2743   2745
  8702   6   2705   2704   2743   2746
  8703   1   2704   2705   2706   2701
  8704   2   2704   2705   2706   2732
  8705   2   2701   2706   2705   2731
  8706   7   2731   2705   2706   2732
  8707   1   2712   2707   2708   2709
  8708   2   2712   2707   2708   2734
  8709   2   2709   2708   2707   2733
  8710   7   2733   2707   2708   2734
  8711   8   2708   2707   2712   2694
  8712   1   2708   2707   2712   2711
  8713   9   2733   2707   2712   2694
  8714   2   2711   2712   2707   2733
  8715   1   2707   2708   2709   2710
  8716   3   2707   2708   2709   1334
  8717   2   2710   2709   2708   2734
  8718   4   2734   2708   2709   1334
  8719   1   2708   2709   2710   2711
  8720   2   2708   2709   2710   1295
  8721   3   2711   2710   2709   1334
  8722   4   1295   2710   2709   1334
  8723   1   2709   2710   2711   2712
  8724   2   2709   2710   2711   2736
  8725   2   2712   2711   2710   1295
  8726   7   1295   2710   2711   2736
  8727   1   2710   2711   2712   2707
  8728   8   2710   2711   2712   2694
  8729   2   2707   2712   2711   2736
  8730   9   2736   2711   2712   2694
  8731  11   2593   2737   2738   2665
  8732  12   2593   2737   2738   2741
  8733  12   2593   2737   2738   2742
  8734  12   2665   2738   2737   2739
  8735  13   2739   2737   2738   2741
  8736  13   2739   2737   2738   2742
  8737  12   2665   2738   2737   2740
  8738  13   2740   2737   2738   2741
  8739  13   2740   2737   2738   2742
  8740  11   2704   2743   2744   2551
  8741  12   2704   2743   2744   2747
  8742  12   2704   2743   2744   2748
  8743  12   2551   2744   2743   2745
  8744  13   2745   2743   2744   2747
  8745  13   2745   2743   2744   2748
  8746  12   2551   2744   2743   2746
  8747  13   2746   2743   2744   2747
  8748  13   2746   2743   2744   2748
  8749  11   2695   2749   2750   1120
  8750  12   2695   2749   2750   2753
  8751  12   2695   2749   2750   1314
  8752  12   1120   2750   2749   2751
  8753  13   2751   2749   2750   2753
  8754  13   2751   2749   2750   1314
  8755  12   1120   2750   2749   2752
  8756  13   2752   2749   2750   2753
  8757  13   2752   2749   2750   1314
  8758  11   2488   2755   2756   2623
  8759  12   2488   2755   2756   2759
  8760  12   2488   2755   2756   2760
  8761  12   2623   2756   2755   2757
  8762  13   2757   2755   2756   2759
  8763  13   2757   2755   2756   2760
  8764  12   2623   2756   2755   2758
  8765  13   2758   2755   2756   2759
  8766  13   2758   2755   2756   2760
  8767  11   2632   2761   2762   2479
  8768  12   2632   2761   2762   2765
  8769  12   2632   2761   2762   2766
  8770  12   2479   2762   2761   2763
  8771  13   2763   2761   2762   2765
  8772  13   2763   2761   2762   2766
  8773  12   2479   2762   2761   2764
  8774  13   2764   2761   2762   2765
  8775  13   2764   2761   2762   2766
  8776  11   2421   2773   2774   1269
  8777  12   2421   2773   2774   2777
  8778  12   2421   2773   2774   1338
  8779  12   1269   2774   2773   2775
  8780  13   2775   2773   2774   2777
  8781  13   2775   2773   2774   1338
  8782  12   1269   2774   2773   2776
  8783  13   2776   2773   2774   2777
  8784  13   2776   2773   2774   1338
  8785  11   2416   2785   2786   1023
  8786  12   2416   2785   2786   2789
  8787  12   2416   2785   2786   2790
  8788  12   1023   2786   2785   1347
  8789  13   1347   2785   2786   2789
  8790  13   1347   2785   2786   2790
  8791  12   1023   2786   2785   2788
  8792  13   2788   2785   2786   2789
  8793  13   2788   2785   2786   2790
  8794  11   2637   2791   2792   2349
  8795  12   2637   2791   2792   2795
  8796  12   2637   2791   2792   2796
  8797  12   2349   2792   2791   2793
  8798  13   2793   2791   2792   2795
  8799  13   2793   2791   2792   2796
  8800  12   2349   2792   2791   2794
  8801  13   2794   2791   2792   2795
  8802  13   2794   2791   2792   2796
  8803  11   2325   2797   2798   2613
  8804  12   2325   2797   2798   2801
  8805  12   2325   2797   2798   2802
  8806  12   2613   2798   2797   2799
  8807  13   2799   2797   2798   2801
  8808  13   2799   2797   2798   2802
  8809  12   2613   2798   2797   2800
  8810  13   2800   2797   2798   2801
  8811  13   2800   2797   2798   2802
  8812  11   2344   2803   2804   2535
  8813  12   2344   2803   2804   2807
  8814  12   2344   2803   2804   2808
  8815  12   2535   2804   2803   2805
  8816  13   2805   2803   2804   2807
  8817  13   2805   2803   2804   2808
  8818  12   2535   2804   2803   2086
  8819  13   2086   2803   2804   2807
  8820  13   2086   2803   2804   2808
  8821  11   2335   2809   2810   2407
  8822  12   2335   2809   2810   2813
  8823  12   2335   2809   2810   2814
  8824  12   2407   2810   2809   2811
  8825  13   2811   2809   2810   2813
  8826  13   2811   2809   2810   2814
  8827  12   2407   2810   2809   2812
  8828  13   2812   2809   2810   2813
  8829  13   2812   2809   2810   2814
  8830  11   2277   2815   2816   2493
  8831  12   2277   2815   2816   2819
  8832  12   2277   2815   2816   2820
  8833  12   2493   2816   2815   2817
  8834  13   2817   2815   2816   2819
  8835  13   2817   2815   2816   2820
  8836  12   2493   2816   2815   2818
  8837  13   2818   2815   2816   2819
  8838  13   2818   2815   2816   2820
  8839  11   2253   2821   2822   2469
  8840  12   2253   2821   2822   2825
  8841  12   2253   2821   2822   2826
  8842  12   2469   2822   2821   2823
  8843  13   2823   2821   2822   2825
  8844  13   2823   2821   2822   2826
  8845  12   2469   2822   2821   2824
  8846  13   2824   2821   2822   2825
  8847  13   2824   2821   2822   2826
  8848  11   2272   2827   2828   2679
  8849  12   2272   2827   2828   2831
  8850  12   2272   2827   2828   2832
  8851  12   2679   2828   2827   2829
  8852  13   2829   2827   2828   2831
  8853  13   2829   2827   2828   2832
  8854  12   2679   2828   2827   2830
  8855  13   2830   2827   2828   2831
  8856  13   2830   2827   2828   2832
  8857  11   2305   2833   2834   2247
  8858  12   2305   2833   2834   2837
  8859  12   2305   2833   2834   2838
  8860  12   2247   2834   2833   2115
  8861  13   2115   2833   2834   2837
  8862  13   2115   2833   2834   2838
  8863  12   2247   2834   2833   2836
  8864  13   2836   2833   2834   2837
  8865  13   2836   2833   2834   2838
  8866  11   2233   2839   2840   2319
  8867  12   2233   2839   2840   2123
  8868  12   2233   2839   2840   2844
  8869  12   2319   2840   2839   2841
  8870  13   2841   2839   2840   2123
  8871  13   2841   2839   2840   2844
  8872  12   2319   2840   2839   2122
  8873  13   2122   2839   2840   2123
  8874  13   2122   2839   2840   2844
  8875  11   2205   2845   2846   2565
  8876  12   2205   2845   2846   2849
  8877  12   2205   2845   2846   2850
  8878  12   2565   2846   2845   2847
  8879  13   2847   2845   2846   2849
  8880  13   2847   2845   2846   2850
  8881  12   2565   2846   2845   2848
  8882  13   2848   2845   2846   2849
  8883  13   2848   2845   2846   2850
  8884  11   2541   2851   2852   2181
  8885  12   2541   2851   2852   2855
  8886  12   2541   2851   2852   2856
  8887  12   2181   2852   2851   2853
  8888  13   2853   2851   2852   2855
  8889  13   2853   2851   2852   2856
  8890  12   2181   2852   2851   2854
  8891  13   2854   2851   2852   2855
  8892  13   2854   2851   2852   2856
  8893  11   2607   2857   2858   2200
  8894  12   2607   2857   2858   2861
  8895  12   2607   2857   2858   2862
  8896  12   2200   2858   2857   2859
  8897  13   2859   2857   2858   2861
  8898  13   2859   2857   2858   2862
  8899  12   2200   2858   2857   2860
  8900  13   2860   2857   2858   2861
  8901  13   2860   2857   2858   2862
  8902  11   2161   2863   2864   2391
  8903  12   2161   2863   2864   2867
  8904  12   2161   2863   2864   2868
  8905  12   2391   2864   2863   2865
  8906  13   2865   2863   2864   2867
  8907  13   2865   2863   2864   2868
  8908  12   2391   2864   2863   2866
  8909  13   2866   2863   2864   2867
  8910  13   2866   2863   2864   2868
  8911  11    735   2869   2870   2377
  8912  12    735   2869   2870   2873
  8913  12    735   2869   2870   2874
  8914  12   2377   2870   2869   2871
  8915  13   2871   2869   2870   2873
  8916  13   2871   2869   2870   2874
  8917  12   2377   2870   2869   2872
  8918  13   2872   2869   2870   2873
  8919  13   2872   2869   2870   2874
  8920  11   2263   2875   2876   2191
  8921  12   2263   2875   2876   2879
  8922  12   2263   2875   2876   2880
  8923  12   2191   2876   2875   2877
  8924  13   2877   2875   2876   2879
  8925  13   2877   2875   2876   2880
  8926  12   2191   2876   2875   2878
  8927  13   2878   2875   2876   2879
  8928  13   2878   2875   2876   2880

Impropers

     1   1      2      1      6    703 
     2   2      1      2      3      7 
     3   2      2      3      4      8 
     4   3      3      4      5     17 
     5   2      4      5      6      9 
     6   2      5      6      1     10 
     7   2     12     11     16     49 
     8   3     11     12     13     17 
     9   2     12     13     14     50 
    10   2     13     14     15     51 
    11   1     14     15     16   2149 
    12   2     15     16     11     52 
    13   3     19     18     23     17 
    14   2     18     19    740     53 
    15   2    739     20     21    774 
    16   1     20     21     22    692 
    17   2     21     22    743     55 
    18   2     18     23    742     56 
    19   2     25     24     29     57 
    20   2     24     25     26     58 
    21   3     25     26     27     30 
    22   2     26     27     28     59 
    23   2     27     28     29     60 
    24   3     24     29     28     17 
    25   1     32     31     36    716 
    26   2     31     32     33     61 
    27   2     32     33     34     62 
    28   3     33     34     35     30 
    29   2     34     35     36     63 
    30   2     31     36     35     64 
    31   3     38     37     42     30 
    32   2     37     38     39     65 
    33   2     38     39     40     66 
    34   1     39     40     41    698 
    35   2     40     41     42     67 
    36   2     37     42     41     68 
    37   2     44     43     48     69 
    38   2     43     44     45     70 
    39   1     44     45     46    685 
    40   2     45     46     47     71 
    41   2     46     47     48     72 
    42   3     43     48     47     30 
    43   1    794     73     78    679 
    44   2    793     74     75     79 
    45   2     74     75    796     80 
    46   3    795     76     77     89 
    47   2     76     77     78     81 
    48   2     77     78     73     82 
    49   2     84     83     88    121 
    50   3     83     84     85     89 
    51   2     84     85     86    122 
    52   2     85     86     87    123 
    53   1     86     87     88    674 
    54   2     87     88     83    124 
    55   3     91     90    815     89 
    56   2     90     91    812    125 
    57   2    811     92     93    846 
    58   1     92     93     94    661 
    59   2     93     94     95    127 
    60   2    810     95     94    128 
    61   2     97     96    101    129 
    62   2     96     97     98    130 
    63   3     97     98     99    102 
    64   2     98     99    100    131 
    65   2     99    100    101    132 
    66   3    100    101     96     89 
    67   1    104    103    108    715 
    68   2    103    104    105    133 
    69   2    104    105    106    134 
    70   3    105    106    107    102 
    71   2    106    107    108    135 
    72   2    103    108    107    136 
    73   3    110    109    114    102 
    74   2    109    110    111    137 
    75   2    110    111    112    138 
    76   1    111    112    113    667 
    77   2    112    113    114    139 
    78   2    109    114    113    140 
    79   2    116    115    120    141 
    80   2    115    116    117    142 
    81   1    116    117    118    655 
    82   2    117    118    119    143 
    83   2    118    119    120    144 
    84   3    119    120    115    102 
    85   1    146    145    870    673 
    86   2    145    146    147    151 
    87   2    146    147    148    152 
    88   3    147    148    869    161 
    89   2    868    149    150    153 
    90   2    149    150    865    154 
    91   2    876    155    160    193 
    92   3    875    156    157   1601 
    93   2    156    157    158    194 
    94   2    157    158    159    195 
    95   1    158    159    880    680 
    96   2    879    160    155    196 
    97   3    163    162    167    161 
    98   2    162    163    164    197 
    99   2    163    164    165    198 
   100   1    164    165    166    637 
   101   2    165    166    167    199 
   102   2    162    167    166    200 
   103   2    169    168    173    201 
   104   2    168    169    170    202 
   105   3    169    170    171    174 
   106   2    170    171    172    203 
   107   2    171    172    173    924 
   108   3    168    173    172    881 
   109   1    176    175    180    649 
   110   2    175    176    177    205 
   111   2    176    177    178    206 
   112   3    177    178    179    174 
   113   2    178    179    180    207 
   114   2    179    180    175    208 
   115   3    182    181    186    174 
   116   2    181    182    183    209 
   117   2    182    183    184    210 
   118   1    183    184    905    643 
   119   2    904    185    906    211 
   120   2    181    186    905    212 
   121   2    188    187    192    213 
   122   2    187    188    189    214 
   123   1    188    189    190    632 
   124   2    189    190    191    215 
   125   2    190    191    192    216 
   126   3    191    192    187    174 
   127   1    218    217    222    710 
   128   2    217    218    219    223 
   129   2    218    219    220    224 
   130   3    219    220    221    233 
   131   2    220    221    222    225 
   132   2    217    222    221    226 
   133   2    228    227    232    265 
   134   3    227    228    229    233 
   135   2    228    229    230    266 
   136   2    229    230    231    267 
   137   1    230    231    232    704 
   138   2    231    232    227    268 
   139   3    235    234    239    233 
   140   2    234    235    236    269 
   141   2    235    236    237   1710 
   142   1    236    237    238    619 
   143   2    237    238    239    271 
   144   2    234    239    238    272 
   145   2    241    240    965    273 
   146   2    240    241    242    274 
   147   3    241    242    243    246 
   148   2    242    243    964    275 
   149   2    963    244    245    276 
   150   3    244    245    960    233 
   151   1    248    247    252    650 
   152   2    247    248    249    277 
   153   2    248    249    250    278 
   154   3    249    250    251    246 
   155   2    250    251    252    279 
   156   2    247    252    251    280 
   157   3    254    253    258    246 
   158   2    253    254    255   1721 
   159   2    254    255    256   1722 
   160   1    255    256    257    625 
   161   2    256    257    258    283 
   162   2    257    258    253    284 
   163   2    260    259    264    285 
   164   2    259    260   1701    286 
   165   1   1700    261    262    613 
   166   2    261    262   1703    287 
   167   2   1702    263    264    288 
   168   3    263    264    259    246 
   169   1    290    289    294   1327 
   170   2    289    290    291   1015 
   171   2    290    291    292    296 
   172   3    291    292    293    305 
   173   2    292    293    294    297 
   174   2    293    294    289    298 
   175   2    300    299    304    337 
   176   3    299    300    301    305 
   177   2    300    301    302    338 
   178   2    301    302    303    339 
   179   1    302    303    304   2066 
   180   2    299    304    303    340 
   181   3    307    306    311    305 
   182   2    306    307    308    341 
   183   2    307    308    309    342 
   184   1    308    309    310    662 
   185   2    309    310    311    343 
   186   2    310    311    306    344 
   187   2    313    312    317    345 
   188   2    312    313    314    346 
   189   3    313    314    315    318 
   190   2    314    315    316    347 
   191   2    315    316    317    348 
   192   3    312    317    316    305 
   193   1    320    319    324    602 
   194   2    319    320    321    349 
   195   2    320    321    322    350 
   196   3    321    322    323    318 
   197   2    322    323    324    351 
   198   2    323    324    319    352 
   199   3    326    325    330    318 
   200   2    325    326    327    353 
   201   2    326    327    328    354 
   202   1    327    328    329    595 
   203   2    328    329    330    355 
   204   2    325    330    329    356 
   205   2    332    331    336    357 
   206   2    331    332    333    358 
   207   1    332    333    334    656 
   208   2    333    334    335    359 
   209   2    334    335    336    360 
   210   3    335    336    331    318 
   211   1    362    361    366    608 
   212   2    361    362    363   1087 
   213   2    362    363    364    368 
   214   3    363    364    365    377 
   215   2    364    365    366    369 
   216   2    365    366    361    370 
   217   2    372    371    376    409 
   218   3    371    372    373    377 
   219   2    372    373    374    410 
   220   2    373    374    375    411 
   221   1    374    375    376    644 
   222   2    371    376    375    412 
   223   3    379    378    383    377 
   224   2    378    379    380    413 
   225   2    379    380    381    414 
   226   1    380    381    382    691 
   227   2    381    382    383    415 
   228   2    382    383    378    416 
   229   2    385    384    389    417 
   230   2    384    385    386    418 
   231   3    385    386    387    390 
   232   2    386    387    388    419 
   233   2    387    388    389    420 
   234   3    384    389    388    377 
   235   1    392    391    396    584 
   236   2    391    392    393    421 
   237   2    392    393    394    422 
   238   3    393    394    395    390 
   239   2    394    395    396    423 
   240   2    391    396    395    424 
   241   3    398    397    402    390 
   242   2    397    398    399    425 
   243   2    398    399    400    426 
   244   1    399    400    401   2030 
   245   2    400    401    402    427 
   246   2    397    402    401    428 
   247   2    404    403    408    429 
   248   2    403    404    405    430 
   249   1    404    405    406    686 
   250   2    405    406    407    431 
   251   2    406    407    408    432 
   252   3    407    408    403    390 
   253   1    434    433    438    577 
   254   2    433    434    435    439 
   255   2    434    435    436    440 
   256   3    435    436    437    449 
   257   2    436    437    438    441 
   258   2    433    438    437    442 
   259   2    444    443    448    481 
   260   3    443    444    445   1889 
   261   2    444    445    446    482 
   262   2    445    446    447    483 
   263   1    446    447    448    697 
   264   2    447    448    443    484 
   265   3    451    450   1895   1889 
   266   2    450    451    452    485 
   267   2    451    452    453    486 
   268   1    452    453   1894    638 
   269   2   1893    454    455    487 
   270   2    454    455   1890    488 
   271   2    457    456    461   1929 
   272   2    456    457    458   1930 
   273   3    457    458    459    462 
   274   2    458    459    460    491 
   275   2    459    460    461    492 
   276   3    460    461    456    449 
   277   1    464    463    468    596 
   278   2    463    464   1905    493 
   279   2   1904    465    466    494 
   280   3    465    466   1907    462 
   281   2   1906    467    468    495 
   282   2    467    468    463    496 
   283   3    470    469    474    462 
   284   2    469    470    471    497 
   285   2    470    471    472    498 
   286   1    471    472    473    601 
   287   2    472    473    474    499 
   288   2    469    474    473    500 
   289   2    476    475    480   1941 
   290   2    475    476    477    502 
   291   1    476    477    478    631 
   292   2    477    478    479    503 
   293   2    478    479    480    504 
   294   3    475    480    479   1902 
   295   1    506    505    510    578 
   296   2    505    506    507    511 
   297   2    506    507    508    512 
   298   3    507    508   1949    521 
   299   2   1948    509   1950    513 
   300   2   1949    510    505   1954 
   301   2    516    515    520    553 
   302   3    515    516    517    521 
   303   2    516    517    518    554 
   304   2    517    518    519    555 
   305   1    518    519    520    668 
   306   2    515    520    519    556 
   307   3    523    522    527    521 
   308   2    522    523    524    557 
   309   2    523    524    525    558 
   310   1    524    525    526    620 
   311   2    525    526    527    559 
   312   2    526    527    522   2000 
   313   2    529    528    533    561 
   314   2    528    529    530    562 
   315   3    529    530    531    534 
   316   2    530    531    532    563 
   317   2    531    532    533    564 
   318   3    528    533    532   1961 
   319   1    536    535    540    589 
   320   2    535    536    537    565 
   321   2    536    537    538    566 
   322   3    537    538    539    534 
   323   2    538    539    540    567 
   324   2    539    540    535    568 
   325   3    542    541    546    534 
   326   2    541    542    543    569 
   327   2    542    543    544    570 
   328   1    543    544    545    583 
   329   2    544    545    546    571 
   330   2    545    546    541    572 
   331   2    548    547    552    573 
   332   2    547    548    549    574 
   333   1    548    549    550   2054 
   334   2    549    550    551   2015 
   335   2    550    551    552    576 
   336   3    547    552    551    534 
   337   1    722    721    726   1423 
   338   2    721    722    723    727 
   339   2    722    723    724    728 
   340   3    723    724    725    737 
   341   2    724    725    726    729 
   342   2    725    726    721    730 
   343   2    732    731    736    769 
   344   3    731    732    733    737 
   345   2    732    733    734    770 
   346   2    733    734    735    771 
   347   1    734    735    736   2869 
   348   2    735    736    731    772 
   349   3    739    738    743    737 
   350   2    738    739     20    773 
   351   2     19    740    741     54 
   352   1    740    741    742   1412 
   353   2    741    742     23    775 
   354   2    738    743     22    776 
   355   2    745    744    749    777 
   356   2    744    745    746    778 
   357   3    745    746    747    750 
   358   2    746    747    748    779 
   359   2    747    748    749    780 
   360   3    744    749    748    737 
   361   1    752    751    756   1436 
   362   2    751    752    753    781 
   363   2    752    753    754    782 
   364   3    753    754    755    750 
   365   2    754    755    756    783 
   366   2    751    756    755    784 
   367   3    758    757    762    750 
   368   2    757    758    759    785 
   369   2    758    759    760    786 
   370   1    759    760    761   1418 
   371   2    760    761    762    787 
   372   2    757    762    761    788 
   373   2    764    763    768    789 
   374   2    763    764    765    790 
   375   1    764    765    766   1405 
   376   2    765    766    767    791 
   377   2    766    767    768    792 
   378   3    763    768    767    750 
   379   1     74    793    798   1399 
   380   2     73    794    795    799 
   381   2    794    795     76    800 
   382   3     75    796    797    809 
   383   2    796    797    798    801 
   384   2    797    798    793    802 
   385   2    804    803    808    841 
   386   3    803    804    805    809 
   387   2    804    805    806    842 
   388   2    805    806    807    843 
   389   1    806    807    808   1394 
   390   2    807    808    803    844 
   391   3    811    810     95    809 
   392   2    810    811     92    845 
   393   2     91    812    813    126 
   394   1    812    813    814   1381 
   395   2    813    814    815    847 
   396   2     90    815    814    848 
   397   2    817    816    821    849 
   398   2    816    817    818    850 
   399   3    817    818    819    822 
   400   2    818    819    820    851 
   401   2    819    820    821    852 
   402   3    820    821    816    809 
   403   1    824    823    828   1435 
   404   2    823    824    825    853 
   405   2    824    825    826    854 
   406   3    825    826    827    822 
   407   2    826    827    828    855 
   408   2    823    828    827    856 
   409   3    830    829    834    822 
   410   2    829    830    831    857 
   411   2    830    831    832    858 
   412   1    831    832    833   1387 
   413   2    832    833    834    859 
   414   2    829    834    833    860 
   415   2    836    835    840    861 
   416   2    835    836    837    862 
   417   1    836    837    838   1375 
   418   2    837    838    839    863 
   419   2    838    839    840    864 
   420   3    839    840    835    822 
   421   1    866    865    150   1393 
   422   2    865    866    867    871 
   423   2    866    867    868    872 
   424   3    867    868    149    881 
   425   2    148    869    870    873 
   426   2    869    870    145    874 
   427   2    156    875    880    913 
   428   3    155    876    877   2321 
   429   2    876    877    878    914 
   430   2    877    878    879    915 
   431   1    878    879    160   1400 
   432   2    159    880    875    916 
   433   3    883    882    887    881 
   434   2    882    883    884    917 
   435   2    883    884    885    918 
   436   1    884    885    886   1357 
   437   2    885    886    887    919 
   438   2    882    887    886    920 
   439   2    889    888    893    921 
   440   2    888    889    890    922 
   441   3    889    890    891    894 
   442   2    890    891    892    923 
   443   2    891    892    893    204 
   444   3    888    893    892    161 
   445   1    896    895    900   1369 
   446   2    895    896    897    925 
   447   2    896    897    898    926 
   448   3    897    898    899    894 
   449   2    898    899    900    927 
   450   2    899    900    895    928 
   451   3    902    901    906    894 
   452   2    901    902    903    929 
   453   2    902    903    904    930 
   454   1    903    904    185   1363 
   455   2    184    905    186    931 
   456   2    901    906    185    932 
   457   2    908    907    912    933 
   458   2    907    908    909    934 
   459   1    908    909    910   1352 
   460   2    909    910    911    935 
   461   2    910    911    912    936 
   462   3    911    912    907    894 
   463   1    938    937    942   1430 
   464   2    937    938    939    943 
   465   2    938    939    940    944 
   466   3    939    940    941    953 
   467   2    940    941    942    945 
   468   2    937    942    941    946 
   469   2    948    947    952    985 
   470   3    947    948    949    953 
   471   2    948    949    950    986 
   472   2    949    950    951    987 
   473   1    950    951    952   1424 
   474   2    951    952    947    988 
   475   3    955    954    959    953 
   476   2    954    955    956    989 
   477   2    955    956    957   2430 
   478   1    956    957    958   1339 
   479   2    957    958    959    991 
   480   2    954    959    958    992 
   481   2    961    960    245    993 
   482   2    960    961    962    994 
   483   3    961    962    963    966 
   484   2    962    963    244    995 
   485   2    243    964    965    996 
   486   3    964    965    240    953 
   487   1    968    967    972   1370 
   488   2    967    968    969    997 
   489   2    968    969    970    998 
   490   3    969    970    971    966 
   491   2    970    971    972    999 
   492   2    967    972    971   1000 
   493   3    974    973    978    966 
   494   2    973    974    975   2441 
   495   2    974    975    976   2442 
   496   1    975    976    977   1345 
   497   2    976    977    978   1003 
   498   2    977    978    973   1004 
   499   2    980    979    984   1005 
   500   2    979    980   2421   1006 
   501   1   2420    981    982   1333 
   502   2    981    982   2423   1007 
   503   2   2422    983    984   1008 
   504   3    983    984    979    966 
   505   1   1010   1009   1014    607 
   506   2   1009   1010   1011    295 
   507   2   1010   1011   1012   1016 
   508   3   1011   1012   1013   1025 
   509   2   1012   1013   1014   1017 
   510   2   1013   1014   1009   1018 
   511   2   1020   1019   1024   1057 
   512   3   1019   1020   1021   1025 
   513   2   1020   1021   1022   1058 
   514   2   1021   1022   1023   1059 
   515   1   1022   1023   1024   2786 
   516   2   1019   1024   1023   1060 
   517   3   1027   1026   1031   1025 
   518   2   1026   1027   1028   1061 
   519   2   1027   1028   1029   1062 
   520   1   1028   1029   1030   1382 
   521   2   1029   1030   1031   1063 
   522   2   1030   1031   1026   1064 
   523   2   1033   1032   1037   1065 
   524   2   1032   1033   1034   1066 
   525   3   1033   1034   1035   1038 
   526   2   1034   1035   1036   1067 
   527   2   1035   1036   1037   1068 
   528   3   1032   1037   1036   1025 
   529   1   1040   1039   1044   1322 
   530   2   1039   1040   1041   1069 
   531   2   1040   1041   1042   1070 
   532   3   1041   1042   1043   1038 
   533   2   1042   1043   1044   1071 
   534   2   1043   1044   1039   1072 
   535   3   1046   1045   1050   1038 
   536   2   1045   1046   1047   1073 
   537   2   1046   1047   1048   1074 
   538   1   1047   1048   1049   1315 
   539   2   1048   1049   1050   1075 
   540   2   1045   1050   1049   1076 
   541   2   1052   1051   1056   1077 
   542   2   1051   1052   1053   1078 
   543   1   1052   1053   1054   1376 
   544   2   1053   1054   1055   1079 
   545   2   1054   1055   1056   1080 
   546   3   1055   1056   1051   1038 
   547   1   1082   1081   1086   1328 
   548   2   1081   1082   1083    367 
   549   2   1082   1083   1084   1088 
   550   3   1083   1084   1085   1097 
   551   2   1084   1085   1086   1089 
   552   2   1085   1086   1081   1090 
   553   2   1092   1091   1096   1129 
   554   3   1091   1092   1093   1097 
   555   2   1092   1093   1094   1130 
   556   2   1093   1094   1095   1131 
   557   1   1094   1095   1096   1364 
   558   2   1091   1096   1095   1132 
   559   3   1099   1098   1103   1097 
   560   2   1098   1099   1100   1133 
   561   2   1099   1100   1101   1134 
   562   1   1100   1101   1102   1411 
   563   2   1101   1102   1103   1135 
   564   2   1102   1103   1098   1136 
   565   2   1105   1104   1109   1137 
   566   2   1104   1105   1106   1138 
   567   3   1105   1106   1107   1110 
   568   2   1106   1107   1108   1139 
   569   2   1107   1108   1109   1140 
   570   3   1104   1109   1108   1097 
   571   1   1112   1111   1116   1304 
   572   2   1111   1112   1113   1141 
   573   2   1112   1113   1114   1142 
   574   3   1113   1114   1115   1110 
   575   2   1114   1115   1116   1143 
   576   2   1111   1116   1115   1144 
   577   3   1118   1117   1122   1110 
   578   2   1117   1118   1119   1145 
   579   2   1118   1119   1120   1146 
   580   1   1119   1120   1121   2750 
   581   2   1120   1121   1122   1147 
   582   2   1117   1122   1121   1148 
   583   2   1124   1123   1128   1149 
   584   2   1123   1124   1125   1150 
   585   1   1124   1125   1126   1406 
   586   2   1125   1126   1127   1151 
   587   2   1126   1127   1128   1152 
   588   3   1127   1128   1123   1110 
   589   1   1154   1153   1158   1297 
   590   2   1153   1154   1155   1159 
   591   2   1154   1155   1156   1160 
   592   3   1155   1156   1157   1169 
   593   2   1156   1157   1158   1161 
   594   2   1153   1158   1157   1162 
   595   2   1164   1163   1168   1201 
   596   3   1163   1164   1165   2609 
   597   2   1164   1165   1166   1202 
   598   2   1165   1166   1167   1203 
   599   1   1166   1167   1168   1417 
   600   2   1167   1168   1163   1204 
   601   3   1171   1170   2615   2609 
   602   2   1170   1171   1172   1205 
   603   2   1171   1172   1173   1206 
   604   1   1172   1173   2614   1358 
   605   2   2613   1174   1175   1207 
   606   2   1174   1175   2610   1208 
   607   2   1177   1176   1181   2649 
   608   2   1176   1177   1178   2650 
   609   3   1177   1178   1179   1182 
   610   2   1178   1179   1180   1211 
   611   2   1179   1180   1181   1212 
   612   3   1180   1181   1176   1169 
   613   1   1184   1183   1188   1316 
   614   2   1183   1184   2625   1213 
   615   2   2624   1185   1186   1214 
   616   3   1185   1186   2627   1182 
   617   2   2626   1187   1188   1215 
   618   2   1187   1188   1183   1216 
   619   3   1190   1189   1194   1182 
   620   2   1189   1190   1191   1217 
   621   2   1190   1191   1192   1218 
   622   1   1191   1192   1193   1321 
   623   2   1192   1193   1194   1219 
   624   2   1189   1194   1193   1220 
   625   2   1196   1195   1200   2661 
   626   2   1195   1196   1197   1222 
   627   1   1196   1197   1198   1351 
   628   2   1197   1198   1199   1223 
   629   2   1198   1199   1200   1224 
   630   3   1195   1200   1199   2622 
   631   1   1226   1225   1230   1298 
   632   2   1225   1226   1227   1231 
   633   2   1226   1227   1228   1232 
   634   3   1227   1228   2669   1241 
   635   2   2668   1229   2670   1233 
   636   2   2669   1230   1225   2674 
   637   2   1236   1235   1240   1273 
   638   3   1235   1236   1237   1241 
   639   2   1236   1237   1238   1274 
   640   2   1237   1238   1239   1275 
   641   1   1238   1239   1240   1388 
   642   2   1235   1240   1239   1276 
   643   3   1243   1242   1247   1241 
   644   2   1242   1243   1244   1277 
   645   2   1243   1244   1245   1278 
   646   1   1244   1245   1246   1340 
   647   2   1245   1246   1247   1279 
   648   2   1246   1247   1242   2720 
   649   2   1249   1248   1253   1281 
   650   2   1248   1249   1250   1282 
   651   3   1249   1250   1251   1254 
   652   2   1250   1251   1252   1283 
   653   2   1251   1252   1253   1284 
   654   3   1248   1253   1252   2681 
   655   1   1256   1255   1260   1309 
   656   2   1255   1256   1257   1285 
   657   2   1256   1257   1258   1286 
   658   3   1257   1258   1259   1254 
   659   2   1258   1259   1260   1287 
   660   2   1259   1260   1255   1288 
   661   3   1262   1261   1266   1254 
   662   2   1261   1262   1263   1289 
   663   2   1262   1263   1264   1290 
   664   1   1263   1264   1265   1303 
   665   2   1264   1265   1266   1291 
   666   2   1265   1266   1261   1292 
   667   2   1268   1267   1272   1293 
   668   2   1267   1268   1269   1294 
   669   1   1268   1269   1270   2774 
   670   2   1269   1270   1271   2735 
   671   2   1270   1271   1272   1296 
   672   3   1267   1272   1271   1254 
   673   1   1442   1441   1446   2143 
   674   2   1441   1442   1443   1447 
   675   2   1442   1443   1444   1448 
   676   3   1443   1444   1445   1457 
   677   2   1444   1445   1446   1449 
   678   2   1445   1446   1441   1450 
   679   2   1452   1451   1456   1489 
   680   3   1451   1452   1453   1457 
   681   2   1452   1453   1454   1490 
   682   2   1453   1454   1455   1491 
   683   1   1454   1455   1456    709 
   684   2   1455   1456   1451   1492 
   685   3   1459   1458   1463   1457 
   686   2   1458   1459   2180   1493 
   687   2   2179   1460   1461   2214 
   688   1   1460   1461   1462   2132 
   689   2   1461   1462   2183   1495 
   690   2   1458   1463   2182   1496 
   691   2   1465   1464   1469   1497 
   692   2   1464   1465   1466   1498 
   693   3   1465   1466   1467   1470 
   694   2   1466   1467   1468   1499 
   695   2   1467   1468   1469   1500 
   696   3   1464   1469   1468   1457 
   697   1   1472   1471   1476   2156 
   698   2   1471   1472   1473   1501 
   699   2   1472   1473   1474   1502 
   700   3   1473   1474   1475   1470 
   701   2   1474   1475   1476   1503 
   702   2   1471   1476   1475   1504 
   703   3   1478   1477   1482   1470 
   704   2   1477   1478   1479   1505 
   705   2   1478   1479   1480   1506 
   706   1   1479   1480   1481   2138 
   707   2   1480   1481   1482   1507 
   708   2   1477   1482   1481   1508 
   709   2   1484   1483   1488   1509 
   710   2   1483   1484   1485   1510 
   711   1   1484   1485   1486   2125 
   712   2   1485   1486   1487   1511 
   713   2   1486   1487   1488   1512 
   714   3   1483   1488   1487   1470 
   715   1   2234   1513   1518   2119 
   716   2   2233   1514   1515   1519 
   717   2   1514   1515   2236   1520 
   718   3   2235   1516   1517   1529 
   719   2   1516   1517   1518   1521 
   720   2   1517   1518   1513   1522 
   721   2   1524   1523   1528   1561 
   722   3   1523   1524   1525   1529 
   723   2   1524   1525   1526   1562 
   724   2   1525   1526   1527   1563 
   725   1   1526   1527   1528   2114 
   726   2   1527   1528   1523   1564 
   727   3   1531   1530   2255   1529 
   728   2   1530   1531   2252   1565 
   729   2   2251   1532   1533   2286 
   730   1   1532   1533   1534   2101 
   731   2   1533   1534   1535   1567 
   732   2   2250   1535   1534   1568 
   733   2   1537   1536   1541   1569 
   734   2   1536   1537   1538   1570 
   735   3   1537   1538   1539   1542 
   736   2   1538   1539   1540   1571 
   737   2   1539   1540   1541   1572 
   738   3   1540   1541   1536   1529 
   739   1   1544   1543   1548   2155 
   740   2   1543   1544   1545   1573 
   741   2   1544   1545   1546   1574 
   742   3   1545   1546   1547   1542 
   743   2   1546   1547   1548   1575 
   744   2   1543   1548   1547   1576 
   745   3   1550   1549   1554   1542 
   746   2   1549   1550   1551   1577 
   747   2   1550   1551   1552   1578 
   748   1   1551   1552   1553   2107 
   749   2   1552   1553   1554   1579 
   750   2   1549   1554   1553   1580 
   751   2   1556   1555   1560   1581 
   752   2   1555   1556   1557   1582 
   753   1   1556   1557   1558   2095 
   754   2   1557   1558   1559   1583 
   755   2   1558   1559   1560   1584 
   756   3   1559   1560   1555   1542 
   757   1   1586   1585   2310   2113 
   758   2   1585   1586   1587   1591 
   759   2   1586   1587   1588   1592 
   760   3   1587   1588   2309   1601 
   761   2   2308   1589   1590   1593 
   762   2   1589   1590   2305   1594 
   763   2   2316   1595   1600   1633 
   764   3   2315   1596   1597    161 
   765   2   1596   1597   1598   1634 
   766   2   1597   1598   1599   1635 
   767   1   1598   1599   2320   2120 
   768   2   2319   1600   1595   1636 
   769   3   1603   1602   1607   1601 
   770   2   1602   1603   1604   1637 
   771   2   1603   1604   1605   1638 
   772   1   1604   1605   1606   2077 
   773   2   1605   1606   1607   1639 
   774   2   1602   1607   1606   1640 
   775   2   1609   1608   1613   1641 
   776   2   1608   1609   1610   1642 
   777   3   1609   1610   1611   1614 
   778   2   1610   1611   1612   1643 
   779   2   1611   1612   1613   2364 
   780   3   1608   1613   1612   2321 
   781   1   1616   1615   1620   2089 
   782   2   1615   1616   1617   1645 
   783   2   1616   1617   1618   1646 
   784   3   1617   1618   1619   1614 
   785   2   1618   1619   1620   1647 
   786   2   1619   1620   1615   1648 
   787   3   1622   1621   1626   1614 
   788   2   1621   1622   1623   1649 
   789   2   1622   1623   1624   1650 
   790   1   1623   1624   2345   2083 
   791   2   2344   1625   2346   1651 
   792   2   1621   1626   2345   1652 
   793   2   1628   1627   1632   1653 
   794   2   1627   1628   1629   1654 
   795   1   1628   1629   1630   2072 
   796   2   1629   1630   1631   1655 
   797   2   1630   1631   1632   1656 
   798   3   1631   1632   1627   1614 
   799   1   1658   1657   1662   2150 
   800   2   1657   1658   1659   1663 
   801   2   1658   1659   1660   1664 
   802   3   1659   1660   1661   1673 
   803   2   1660   1661   1662   1665 
   804   2   1657   1662   1661   1666 
   805   2   1668   1667   1672   1705 
   806   3   1667   1668   1669   1673 
   807   2   1668   1669   1670   1706 
   808   2   1669   1670   1671   1707 
   809   1   1670   1671   1672   2144 
   810   2   1671   1672   1667   1708 
   811   3   1675   1674   1679   1673 
   812   2   1674   1675   1676   1709 
   813   2   1675   1676   1677    270 
   814   1   1676   1677   1678   2059 
   815   2   1677   1678   1679   1711 
   816   2   1674   1679   1678   1712 
   817   2   1681   1680   2405   1713 
   818   2   1680   1681   1682   1714 
   819   3   1681   1682   1683   1686 
   820   2   1682   1683   2404   1715 
   821   2   2403   1684   1685   1716 
   822   3   1684   1685   2400   1673 
   823   1   1688   1687   1692   2090 
   824   2   1687   1688   1689   1717 
   825   2   1688   1689   1690   1718 
   826   3   1689   1690   1691   1686 
   827   2   1690   1691   1692   1719 
   828   2   1687   1692   1691   1720 
   829   3   1694   1693   1698   1686 
   830   2   1693   1694   1695    281 
   831   2   1694   1695   1696    282 
   832   1   1695   1696   1697   2065 
   833   2   1696   1697   1698   1723 
   834   2   1697   1698   1693   1724 
   835   2   1700   1699   1704   1725 
   836   2   1699   1700    261   1726 
   837   1    260   1701   1702   2053 
   838   2   1701   1702    263   1727 
   839   2    262   1703   1704   1728 
   840   3   1703   1704   1699   1686 
   841   1   1730   1729   1734   2767 
   842   2   1729   1730   1731   2455 
   843   2   1730   1731   1732   1736 
   844   3   1731   1732   1733   1745 
   845   2   1732   1733   1734   1737 
   846   2   1733   1734   1729   1738 
   847   2   1740   1739   1744   1777 
   848   3   1739   1740   1741   1745 
   849   2   1740   1741   1742   1778 
   850   2   1741   1742   1743   1779 
   851   1   1742   1743   1744    626 
   852   2   1739   1744   1743   1780 
   853   3   1747   1746   1751   1745 
   854   2   1746   1747   1748   1781 
   855   2   1747   1748   1749   1782 
   856   1   1748   1749   1750   2102 
   857   2   1749   1750   1751   1783 
   858   2   1750   1751   1746   1784 
   859   2   1753   1752   1757   1785 
   860   2   1752   1753   1754   1786 
   861   3   1753   1754   1755   1758 
   862   2   1754   1755   1756   1787 
   863   2   1755   1756   1757   1788 
   864   3   1752   1757   1756   1745 
   865   1   1760   1759   1764   2042 
   866   2   1759   1760   1761   1789 
   867   2   1760   1761   1762   1790 
   868   3   1761   1762   1763   1758 
   869   2   1762   1763   1764   1791 
   870   2   1763   1764   1759   1792 
   871   3   1766   1765   1770   1758 
   872   2   1765   1766   1767   1793 
   873   2   1766   1767   1768   1794 
   874   1   1767   1768   1769   2035 
   875   2   1768   1769   1770   1795 
   876   2   1765   1770   1769   1796 
   877   2   1772   1771   1776   1797 
   878   2   1771   1772   1773   1798 
   879   1   1772   1773   1774   2096 
   880   2   1773   1774   1775   1799 
   881   2   1774   1775   1776   1800 
   882   3   1775   1776   1771   1758 
   883   1   1802   1801   1806   2048 
   884   2   1801   1802   1803   2527 
   885   2   1802   1803   1804   1808 
   886   3   1803   1804   1805   1817 
   887   2   1804   1805   1806   1809 
   888   2   1805   1806   1801   1810 
   889   2   1812   1811   1816   1849 
   890   3   1811   1812   1813   1817 
   891   2   1812   1813   1814   1850 
   892   2   1813   1814   1815   1851 
   893   1   1814   1815   1816   2084 
   894   2   1811   1816   1815   1852 
   895   3   1819   1818   1823   1817 
   896   2   1818   1819   1820   1853 
   897   2   1819   1820   1821   1854 
   898   1   1820   1821   1822   2131 
   899   2   1821   1822   1823   1855 
   900   2   1822   1823   1818   1856 
   901   2   1825   1824   1829   1857 
   902   2   1824   1825   1826   1858 
   903   3   1825   1826   1827   1830 
   904   2   1826   1827   1828   1859 
   905   2   1827   1828   1829   1860 
   906   3   1824   1829   1828   1817 
   907   1   1832   1831   1836   2024 
   908   2   1831   1832   1833   1861 
   909   2   1832   1833   1834   1862 
   910   3   1833   1834   1835   1830 
   911   2   1834   1835   1836   1863 
   912   2   1831   1836   1835   1864 
   913   3   1838   1837   1842   1830 
   914   2   1837   1838   1839   1865 
   915   2   1838   1839   1840   1866 
   916   1   1839   1840   1841    590 
   917   2   1840   1841   1842   1867 
   918   2   1837   1842   1841   1868 
   919   2   1844   1843   1848   1869 
   920   2   1843   1844   1845   1870 
   921   1   1844   1845   1846   2126 
   922   2   1845   1846   1847   1871 
   923   2   1846   1847   1848   1872 
   924   3   1847   1848   1843   1830 
   925   1   1874   1873   1878   2017 
   926   2   1873   1874   1875   1879 
   927   2   1874   1875   1876   1880 
   928   3   1875   1876   1877   1889 
   929   2   1876   1877   1878   1881 
   930   2   1873   1878   1877   1882 
   931   2   1884   1883   1888   1921 
   932   3   1883   1884   1885    449 
   933   2   1884   1885   1886   1922 
   934   2   1885   1886   1887   1923 
   935   1   1886   1887   1888   2137 
   936   2   1887   1888   1883   1924 
   937   3   1891   1890    455    449 
   938   2   1890   1891   1892   1925 
   939   2   1891   1892   1893   1926 
   940   1   1892   1893    454   2078 
   941   2    453   1894   1895   1927 
   942   2   1894   1895    450   1928 
   943   2   1897   1896   1901    489 
   944   2   1896   1897   1898    490 
   945   3   1897   1898   1899   1902 
   946   2   1898   1899   1900   1931 
   947   2   1899   1900   1901   1932 
   948   3   1900   1901   1896   1889 
   949   1   1904   1903   1908   2036 
   950   2   1903   1904    465   1933 
   951   2    464   1905   1906   1934 
   952   3   1905   1906    467   1902 
   953   2    466   1907   1908   1935 
   954   2   1907   1908   1903   1936 
   955   3   1910   1909   1914   1902 
   956   2   1909   1910   1911   1937 
   957   2   1910   1911   1912   1938 
   958   1   1911   1912   1913   2041 
   959   2   1912   1913   1914   1939 
   960   2   1909   1914   1913   1940 
   961   2   1916   1915   1920    501 
   962   2   1915   1916   1917   1942 
   963   1   1916   1917   1918   2071 
   964   2   1917   1918   1919   1943 
   965   2   1918   1919   1920   1944 
   966   3   1915   1920   1919    462 
   967   1   1946   1945   1950   2018 
   968   2   1945   1946   1947   1951 
   969   2   1946   1947   1948   1952 
   970   3   1947   1948    509   1961 
   971   2    508   1949    510   1953 
   972   2    509   1950   1945    514 
   973   2   1956   1955   1960   1993 
   974   3   1955   1956   1957   1961 
   975   2   1956   1957   1958   1994 
   976   2   1957   1958   1959   1995 
   977   1   1958   1959   1960   2108 
   978   2   1955   1960   1959   1996 
   979   3   1963   1962   1967   1961 
   980   2   1962   1963   1964   1997 
   981   2   1963   1964   1965   1998 
   982   1   1964   1965   1966   2060 
   983   2   1965   1966   1967   1999 
   984   2   1966   1967   1962    560 
   985   2   1969   1968   1973   2001 
   986   2   1968   1969   1970   2002 
   987   3   1969   1970   1971   1974 
   988   2   1970   1971   1972   2003 
   989   2   1971   1972   1973   2004 
   990   3   1968   1973   1972    521 
   991   1   1976   1975   1980   2029 
   992   2   1975   1976   1977   2005 
   993   2   1976   1977   1978   2006 
   994   3   1977   1978   1979   1974 
   995   2   1978   1979   1980   2007 
   996   2   1979   1980   1975   2008 
   997   3   1982   1981   1986   1974 
   998   2   1981   1982   1983   2009 
   999   2   1982   1983   1984   2010 
  1000   1   1983   1984   1985   2023 
  1001   2   1984   1985   1986   2011 
  1002   2   1985   1986   1981   2012 
  1003   2   1988   1987   1992   2013 
  1004   2   1987   1988   1989   2014 
  1005   1   1988   1989   1990    614 
  1006   2   1989   1990   1991    575 
  1007   2   1990   1991   1992   2016 
  1008   3   1987   1992   1991   1974 
  1009   1   2162   2161   2166   2863 
  1010   2   2161   2162   2163   2167 
  1011   2   2162   2163   2164   2168 
  1012   3   2163   2164   2165   2177 
  1013   2   2164   2165   2166   2169 
  1014   2   2165   2166   2161   2170 
  1015   2   2172   2171   2176   2209 
  1016   3   2171   2172   2173   2177 
  1017   2   2172   2173   2174   2210 
  1018   2   2173   2174   2175   2211 
  1019   1   2174   2175   2176   1429 
  1020   2   2175   2176   2171   2212 
  1021   3   2179   2178   2183   2177 
  1022   2   2178   2179   1460   2213 
  1023   2   1459   2180   2181   1494 
  1024   1   2180   2181   2182   2852 
  1025   2   2181   2182   1463   2215 
  1026   2   2178   2183   1462   2216 
  1027   2   2185   2184   2189   2217 
  1028   2   2184   2185   2186   2218 
  1029   3   2185   2186   2187   2190 
  1030   2   2186   2187   2188   2219 
  1031   2   2187   2188   2189   2220 
  1032   3   2184   2189   2188   2177 
  1033   1   2192   2191   2196   2876 
  1034   2   2191   2192   2193   2221 
  1035   2   2192   2193   2194   2222 
  1036   3   2193   2194   2195   2190 
  1037   2   2194   2195   2196   2223 
  1038   2   2191   2196   2195   2224 
  1039   3   2198   2197   2202   2190 
  1040   2   2197   2198   2199   2225 
  1041   2   2198   2199   2200   2226 
  1042   1   2199   2200   2201   2858 
  1043   2   2200   2201   2202   2227 
  1044   2   2197   2202   2201   2228 
  1045   2   2204   2203   2208   2229 
  1046   2   2203   2204   2205   2230 
  1047   1   2204   2205   2206   2845 
  1048   2   2205   2206   2207   2231 
  1049   2   2206   2207   2208   2232 
  1050   3   2203   2208   2207   2190 
  1051   1   1514   2233   2238   2839 
  1052   2   1513   2234   2235   2239 
  1053   2   2234   2235   1516   2240 
  1054   3   1515   2236   2237   2249 
  1055   2   2236   2237   2238   2241 
  1056   2   2237   2238   2233   2242 
  1057   2   2244   2243   2248   2281 
  1058   3   2243   2244   2245   2249 
  1059   2   2244   2245   2246   2282 
  1060   2   2245   2246   2247   2283 
  1061   1   2246   2247   2248   2834 
  1062   2   2247   2248   2243   2284 
  1063   3   2251   2250   1535   2249 
  1064   2   2250   2251   1532   2285 
  1065   2   1531   2252   2253   1566 
  1066   1   2252   2253   2254   2821 
  1067   2   2253   2254   2255   2287 
  1068   2   1530   2255   2254   2288 
  1069   2   2257   2256   2261   2289 
  1070   2   2256   2257   2258   2290 
  1071   3   2257   2258   2259   2262 
  1072   2   2258   2259   2260   2291 
  1073   2   2259   2260   2261   2292 
  1074   3   2260   2261   2256   2249 
  1075   1   2264   2263   2268   2875 
  1076   2   2263   2264   2265   2293 
  1077   2   2264   2265   2266   2294 
  1078   3   2265   2266   2267   2262 
  1079   2   2266   2267   2268   2295 
  1080   2   2263   2268   2267   2296 
  1081   3   2270   2269   2274   2262 
  1082   2   2269   2270   2271   2297 
  1083   2   2270   2271   2272   2298 
  1084   1   2271   2272   2273   2827 
  1085   2   2272   2273   2274   2299 
  1086   2   2269   2274   2273   2300 
  1087   2   2276   2275   2280   2301 
  1088   2   2275   2276   2277   2302 
  1089   1   2276   2277   2278   2815 
  1090   2   2277   2278   2279   2303 
  1091   2   2278   2279   2280   2304 
  1092   3   2279   2280   2275   2262 
  1093   1   2306   2305   1590   2833 
  1094   2   2305   2306   2307   2311 
  1095   2   2306   2307   2308   2312 
  1096   3   2307   2308   1589   2321 
  1097   2   1588   2309   2310   2313 
  1098   2   2309   2310   1585   2314 
  1099   2   1596   2315   2320   2353 
  1100   3   1595   2316   2317    881 
  1101   2   2316   2317   2318   2354 
  1102   2   2317   2318   2319   2355 
  1103   1   2318   2319   1600   2840 
  1104   2   1599   2320   2315   2356 
  1105   3   2323   2322   2327   2321 
  1106   2   2322   2323   2324   2357 
  1107   2   2323   2324   2325   2358 
  1108   1   2324   2325   2326   2797 
  1109   2   2325   2326   2327   2359 
  1110   2   2322   2327   2326   2360 
  1111   2   2329   2328   2333   2361 
  1112   2   2328   2329   2330   2362 
  1113   3   2329   2330   2331   2334 
  1114   2   2330   2331   2332   2363 
  1115   2   2331   2332   2333   1644 
  1116   3   2328   2333   2332   1601 
  1117   1   2336   2335   2340   2809 
  1118   2   2335   2336   2337   2365 
  1119   2   2336   2337   2338   2366 
  1120   3   2337   2338   2339   2334 
  1121   2   2338   2339   2340   2367 
  1122   2   2339   2340   2335   2368 
  1123   3   2342   2341   2346   2334 
  1124   2   2341   2342   2343   2369 
  1125   2   2342   2343   2344   2370 
  1126   1   2343   2344   1625   2803 
  1127   2   1624   2345   1626   2371 
  1128   2   2341   2346   1625   2372 
  1129   2   2348   2347   2352   2373 
  1130   2   2347   2348   2349   2374 
  1131   1   2348   2349   2350   2792 
  1132   2   2349   2350   2351   2375 
  1133   2   2350   2351   2352   2376 
  1134   3   2351   2352   2347   2334 
  1135   1   2378   2377   2382   2870 
  1136   2   2377   2378   2379   2383 
  1137   2   2378   2379   2380   2384 
  1138   3   2379   2380   2381   2393 
  1139   2   2380   2381   2382   2385 
  1140   2   2377   2382   2381   2386 
  1141   2   2388   2387   2392   2425 
  1142   3   2387   2388   2389   2393 
  1143   2   2388   2389   2390   2426 
  1144   2   2389   2390   2391   2427 
  1145   1   2390   2391   2392   2864 
  1146   2   2391   2392   2387   2428 
  1147   3   2395   2394   2399   2393 
  1148   2   2394   2395   2396   2429 
  1149   2   2395   2396   2397    990 
  1150   1   2396   2397   2398   2779 
  1151   2   2397   2398   2399   2431 
  1152   2   2394   2399   2398   2432 
  1153   2   2401   2400   1685   2433 
  1154   2   2400   2401   2402   2434 
  1155   3   2401   2402   2403   2406 
  1156   2   2402   2403   1684   2435 
  1157   2   1683   2404   2405   2436 
  1158   3   2404   2405   1680   2393 
  1159   1   2408   2407   2412   2810 
  1160   2   2407   2408   2409   2437 
  1161   2   2408   2409   2410   2438 
  1162   3   2409   2410   2411   2406 
  1163   2   2410   2411   2412   2439 
  1164   2   2407   2412   2411   2440 
  1165   3   2414   2413   2418   2406 
  1166   2   2413   2414   2415   1001 
  1167   2   2414   2415   2416   1002 
  1168   1   2415   2416   2417   2785 
  1169   2   2416   2417   2418   2443 
  1170   2   2417   2418   2413   2444 
  1171   2   2420   2419   2424   2445 
  1172   2   2419   2420    981   2446 
  1173   1    980   2421   2422   2773 
  1174   2   2421   2422    983   2447 
  1175   2    982   2423   2424   2448 
  1176   3   2423   2424   2419   2406 
  1177   1   2450   2449   2454   2047 
  1178   2   2449   2450   2451   1735 
  1179   2   2450   2451   2452   2456 
  1180   3   2451   2452   2453   2465 
  1181   2   2452   2453   2454   2457 
  1182   2   2453   2454   2449   2458 
  1183   2   2460   2459   2464   2497 
  1184   3   2459   2460   2461   2465 
  1185   2   2460   2461   2462   2498 
  1186   2   2461   2462   2463   2499 
  1187   1   2462   2463   2464   1346 
  1188   2   2459   2464   2463   2500 
  1189   3   2467   2466   2471   2465 
  1190   2   2466   2467   2468   2501 
  1191   2   2467   2468   2469   2502 
  1192   1   2468   2469   2470   2822 
  1193   2   2469   2470   2471   2503 
  1194   2   2470   2471   2466   2504 
  1195   2   2473   2472   2477   2505 
  1196   2   2472   2473   2474   2506 
  1197   3   2473   2474   2475   2478 
  1198   2   2474   2475   2476   2507 
  1199   2   2475   2476   2477   2508 
  1200   3   2472   2477   2476   2465 
  1201   1   2480   2479   2484   2762 
  1202   2   2479   2480   2481   2509 
  1203   2   2480   2481   2482   2510 
  1204   3   2481   2482   2483   2478 
  1205   2   2482   2483   2484   2511 
  1206   2   2483   2484   2479   2512 
  1207   3   2486   2485   2490   2478 
  1208   2   2485   2486   2487   2513 
  1209   2   2486   2487   2488   2514 
  1210   1   2487   2488   2489   2755 
  1211   2   2488   2489   2490   2515 
  1212   2   2485   2490   2489   2516 
  1213   2   2492   2491   2496   2517 
  1214   2   2491   2492   2493   2518 
  1215   1   2492   2493   2494   2816 
  1216   2   2493   2494   2495   2519 
  1217   2   2494   2495   2496   2520 
  1218   3   2495   2496   2491   2478 
  1219   1   2522   2521   2526   2768 
  1220   2   2521   2522   2523   1807 
  1221   2   2522   2523   2524   2528 
  1222   3   2523   2524   2525   2537 
  1223   2   2524   2525   2526   2529 
  1224   2   2525   2526   2521   2530 
  1225   2   2532   2531   2536   2569 
  1226   3   2531   2532   2533   2537 
  1227   2   2532   2533   2534   2570 
  1228   2   2533   2534   2535   2571 
  1229   1   2534   2535   2536   2804 
  1230   2   2531   2536   2535   2572 
  1231   3   2539   2538   2543   2537 
  1232   2   2538   2539   2540   2573 
  1233   2   2539   2540   2541   2574 
  1234   1   2540   2541   2542   2851 
  1235   2   2541   2542   2543   2575 
  1236   2   2542   2543   2538   2576 
  1237   2   2545   2544   2549   2577 
  1238   2   2544   2545   2546   2578 
  1239   3   2545   2546   2547   2550 
  1240   2   2546   2547   2548   2579 
  1241   2   2547   2548   2549   2580 
  1242   3   2544   2549   2548   2537 
  1243   1   2552   2551   2556   2744 
  1244   2   2551   2552   2553   2581 
  1245   2   2552   2553   2554   2582 
  1246   3   2553   2554   2555   2550 
  1247   2   2554   2555   2556   2583 
  1248   2   2551   2556   2555   2584 
  1249   3   2558   2557   2562   2550 
  1250   2   2557   2558   2559   2585 
  1251   2   2558   2559   2560   2586 
  1252   1   2559   2560   2561   1310 
  1253   2   2560   2561   2562   2587 
  1254   2   2557   2562   2561   2588 
  1255   2   2564   2563   2568   2589 
  1256   2   2563   2564   2565   2590 
  1257   1   2564   2565   2566   2846 
  1258   2   2565   2566   2567   2591 
  1259   2   2566   2567   2568   2592 
  1260   3   2567   2568   2563   2550 
  1261   1   2594   2593   2598   2737 
  1262   2   2593   2594   2595   2599 
  1263   2   2594   2595   2596   2600 
  1264   3   2595   2596   2597   2609 
  1265   2   2596   2597   2598   2601 
  1266   2   2593   2598   2597   2602 
  1267   2   2604   2603   2608   2641 
  1268   3   2603   2604   2605   1169 
  1269   2   2604   2605   2606   2642 
  1270   2   2605   2606   2607   2643 
  1271   1   2606   2607   2608   2857 
  1272   2   2607   2608   2603   2644 
  1273   3   2611   2610   1175   1169 
  1274   2   2610   2611   2612   2645 
  1275   2   2611   2612   2613   2646 
  1276   1   2612   2613   1174   2798 
  1277   2   1173   2614   2615   2647 
  1278   2   2614   2615   1170   2648 
  1279   2   2617   2616   2621   1209 
  1280   2   2616   2617   2618   1210 
  1281   3   2617   2618   2619   2622 
  1282   2   2618   2619   2620   2651 
  1283   2   2619   2620   2621   2652 
  1284   3   2620   2621   2616   2609 
  1285   1   2624   2623   2628   2756 
  1286   2   2623   2624   1185   2653 
  1287   2   1184   2625   2626   2654 
  1288   3   2625   2626   1187   2622 
  1289   2   1186   2627   2628   2655 
  1290   2   2627   2628   2623   2656 
  1291   3   2630   2629   2634   2622 
  1292   2   2629   2630   2631   2657 
  1293   2   2630   2631   2632   2658 
  1294   1   2631   2632   2633   2761 
  1295   2   2632   2633   2634   2659 
  1296   2   2629   2634   2633   2660 
  1297   2   2636   2635   2640   1221 
  1298   2   2635   2636   2637   2662 
  1299   1   2636   2637   2638   2791 
  1300   2   2637   2638   2639   2663 
  1301   2   2638   2639   2640   2664 
  1302   3   2635   2640   2639   1182 
  1303   1   2666   2665   2670   2738 
  1304   2   2665   2666   2667   2671 
  1305   2   2666   2667   2668   2672 
  1306   3   2667   2668   1229   2681 
  1307   2   1228   2669   1230   2673 
  1308   2   1229   2670   2665   1234 
  1309   2   2676   2675   2680   2713 
  1310   3   2675   2676   2677   2681 
  1311   2   2676   2677   2678   2714 
  1312   2   2677   2678   2679   2715 
  1313   1   2678   2679   2680   2828 
  1314   2   2675   2680   2679   2716 
  1315   3   2683   2682   2687   2681 
  1316   2   2682   2683   2684   2717 
  1317   2   2683   2684   2685   2718 
  1318   1   2684   2685   2686   2780 
  1319   2   2685   2686   2687   2719 
  1320   2   2686   2687   2682   1280 
  1321   2   2689   2688   2693   2721 
  1322   2   2688   2689   2690   2722 
  1323   3   2689   2690   2691   2694 
  1324   2   2690   2691   2692   2723 
  1325   2   2691   2692   2693   2724 
  1326   3   2688   2693   2692   1241 
  1327   1   2696   2695   2700   2749 
  1328   2   2695   2696   2697   2725 
  1329   2   2696   2697   2698   2726 
  1330   3   2697   2698   2699   2694 
  1331   2   2698   2699   2700   2727 
  1332   2   2699   2700   2695   2728 
  1333   3   2702   2701   2706   2694 
  1334   2   2701   2702   2703   2729 
  1335   2   2702   2703   2704   2730 
  1336   1   2703   2704   2705   2743 
  1337   2   2704   2705   2706   2731 
  1338   2   2705   2706   2701   2732 
  1339   2   2708   2707   2712   2733 
  1340   2   2707   2708   2709   2734 
  1341   1   2708   2709   2710   1334 
  1342   2   2709   2710   2711   1295 
  1343   2   2710   2711   2712   2736 
  1344   3   2707   2712   2711   2694 

