LAMMPS data file. msi2lmp v3.9.11 / 6 Sep 2024 / CGCMM for wma_0_opt

   2160 atoms
   2376 bonds
   4176 angles
   6696 dihedrals
   1008 impropers

   4 atom types
   6 bond types
   9 angle types
  13 dihedral types
   3 improper types

    -8.310944391    24.717655609 xlo xhi
    -0.270121505    30.680790173 ylo yhi
    -0.607292517    27.581196621 zlo zhi
   -16.808051593    -0.319822632    -0.769359633 xy xz yz

Masses

   1  12.011150 # cp
   2   1.007970 # h
   3  12.011150 # c
   4  12.011150 # c2

Pair Coeffs # lj/cut/coul/long

   1   0.1479999981   3.6170487995 # cp
   2   0.0380000011   2.4499714540 # h
   3   0.1599999990   3.4745050026 # c
   4   0.0389999952   3.8754094636 # c2

Bond Coeffs # harmonic

   1   480.0000     1.3400 # cp-cp
   2   283.0924     1.5100 # cp-c2
   3   363.4164     1.0800 # cp-h
   4   283.0924     1.5100 # cp-c
   5   322.7158     1.5260 # c2-c2
   6   340.6175     1.1050 # h-c2

Angle Coeffs # harmonic

   1    90.0000   120.0000 # cp-cp-cp
   2    44.2000   120.0000 # cp-cp-c2
   3    37.0000   120.0000 # cp-cp-h
   4    44.2000   120.0000 # cp-cp-c
   5    46.6000   110.5000 # cp-c-cp
   6    46.6000   110.5000 # cp-c2-c2
   7    44.4000   110.0000 # cp-c2-h
   8    44.4000   110.0000 # h-c2-c2
   9    39.5000   106.4000 # h-c2-h

Dihedral Coeffs # harmonic

  1     3.0000  -1   2 # cp-cp-cp-cp
  2     3.0000  -1   2 # cp-cp-cp-h
  3     3.0000  -1   2 # cp-cp-cp-c2
  4     3.0000  -1   2 # h-cp-cp-c2
  5     0.0000   1   2 # cp-cp-c2-c2
  6     0.0000   1   2 # cp-cp-c2-h
  7     3.0000  -1   2 # h-cp-cp-h
  8     3.0000  -1   2 # cp-cp-cp-c
  9     3.0000  -1   2 # h-cp-cp-c
 10     0.6750   1   4 # cp-cp-c-cp
 11     0.1581   1   3 # cp-c2-c2-cp
 12     0.1581   1   3 # cp-c2-c2-h
 13     0.1581   1   3 # h-c2-c2-h

Improper Coeffs # cvff

    1     0.3700  -1   2 # cp-cp-cp-c2
    2     0.3700  -1   2 # cp-cp-cp-h
    3     0.3700  -1   2 # cp-cp-cp-c

Atoms # full

      1      1   1  0.000000    -0.729863000     7.613380000    10.893000000   0   0   0 # cp
      2      1   1 -0.100000    -1.294400000     8.738770000    10.374600000   0   0   0 # cp
      3      1   1 -0.100000    -2.611290000     8.767660000    10.072300000   0   0   0 # cp
      4      1   1  0.000000    -3.444020000     7.645020000    10.261800000   0   0   0 # cp
      5      1   1 -0.100000    -2.794490000     6.471000000    10.663400000   0   0   0 # cp
      6      1   1 -0.100000    -1.469600000     6.452760000    11.013400000   0   0   0 # cp
      7      1   2  0.100000    -0.668550000     9.591930000    10.166500000   0   0   0 # h
      8      1   2  0.100000    -3.035130000     9.676020000     9.667740000   0   0   0 # h
      9      1   2  0.100000    13.164175662     5.560910000    10.773100000   0   0   0 # h
     10      1   2  0.100000    -1.041280000     5.508050000    11.312400000   0   0   0 # h
     11      1   1 -0.100000     9.743140000     5.806930000     9.759450000   0   0   0 # cp
     12      1   1  0.000000    10.673465662     6.481880000    10.532900000   0   0   0 # cp
     13      1   1 -0.100000    10.645275662     6.239000000    11.921200000   0   0   0 # cp
     14      1   1 -0.100000     9.563890000     5.650230000    12.518200000   0   0   0 # cp
     15      1   1  0.000000     8.591430000     5.125430000    11.727700000   0   0   0 # cp
     16      1   1 -0.100000     8.753200000     5.063100000    10.371300000   0   0   0 # cp
     17      1   3  0.000000    11.482905662     7.753390000     9.984330000   0   0   0 # c
     18      1   1  0.000000    11.277895662     8.272190000     8.464380000   0   0   0 # cp
     19      1   1 -0.100000    -5.315050000     9.645800000     8.219720000   0   0   0 # cp
     20      1   1 -0.100000    10.715715662    10.109100000     7.033250000   0   0   0 # cp
     21      1   1  0.000000    10.471865662     9.249620000     5.979300000   0   0   0 # cp
     22      1   1 -0.100000    10.812835662     7.908380000     6.145280000   0   0   0 # cp
     23      1   1 -0.100000    11.190345662     7.411900000     7.363610000   0   0   0 # cp
     24      1   1 -0.100000     9.380825662     9.043670000    10.778300000   0   0   0 # cp
     25      1   1 -0.100000     8.687585662     9.694750000    11.758500000   0   0   0 # cp
     26      1   1  0.000000     9.327205662    10.381500000    12.768600000   0   0   0 # cp
     27      1   1 -0.100000    -5.798720000    10.389800000    12.753400000   0   0   0 # cp
     28      1   1 -0.100000    -5.108230000     9.516210000    11.939100000   0   0   0 # cp
     29      1   1  0.000000    10.752115662     8.855790000    10.912900000   0   0   0 # cp
     30      1   3  0.000000     8.509715662    11.129300000    13.909100000   0   0   0 # c
     31      1   1  0.000000     5.381290000     8.978360000    16.047100000   0   0   0 # cp
     32      1   1 -0.100000     6.517290000     8.321320000    15.662100000   0   0   0 # cp
     33      1   1 -0.100000     7.428360000     8.926950000    14.837400000   0   0   0 # cp
     34      1   1  0.000000     7.285240000    10.247900000    14.459600000   0   0   0 # cp
     35      1   1 -0.100000     6.090990000    10.892900000    14.826000000   0   0   0 # cp
     36      1   1 -0.100000     5.092570000    10.204600000    15.479700000   0   0   0 # cp
     37      1   1  0.000000     8.071475662    12.443600000    13.083200000   0   0   0 # cp
     38      1   1 -0.100000    -7.723600000    13.614700000    13.199600000   0   0   0 # cp
     39      1   1 -0.100000    -8.058500000    14.760900000    12.517400000   0   0   0 # cp
     40      1   1  0.000000     7.351175662    14.785400000    11.702000000   0   0   0 # cp
     41      1   1 -0.100000     6.602085662    13.635900000    11.559200000   0   0   0 # cp
     42      1   1 -0.100000     6.955290000    12.472500000    12.246700000   0   0   0 # cp
     43      1   1 -0.100000     8.904655662    12.334800000    16.163900000   0   0   0 # cp
     44      1   1 -0.100000    -7.132720000    12.398300000    17.447000000   0   0   0 # cp
     45      1   1  0.000000    -6.375640000    11.355500000    17.942100000   0   0   0 # cp
     46      1   1 -0.100000    -5.890120000    10.396400000    17.094500000   0   0   0 # cp
     47      1   1 -0.100000    10.167735662    10.355100000    15.820800000   0   0   0 # cp
     48      1   1  0.000000     9.265805662    11.297200000    15.312000000   0   0   0 # cp
     49      1   2  0.100000     9.647910000     5.937370000     8.678820000   0   0   0 # h
     50      1   2  0.100000    11.335395662     6.783960000    12.555500000   0   0   0 # h
     51      1   2  0.100000     9.488740000     5.659710000    13.584000000   0   0   0 # h
     52      1   2  0.100000     8.029350000     4.579780000     9.750000000   0   0   0 # h
     53      1   2  0.100000    -5.050420000    10.377900000     8.958890000   0   0   0 # h
     54      1   2  0.100000    -5.929550000    11.181400000     6.900300000   0   0   0 # h
     55      1   2  0.100000    10.737845662     7.185180000     5.348480000   0   0   0 # h
     56      1   2  0.100000    11.363255662     6.345700000     7.464340000   0   0   0 # h
     57      1   2  0.100000     8.848030000     8.612620000     9.959280000   0   0   0 # h
     58      1   2  0.100000     7.626170000     9.716380000    11.674500000   0   0   0 # h
     59      1   2  0.100000    -5.235040000    11.014800000    13.454900000   0   0   0 # h
     60      1   2  0.100000    -4.010310000     9.448940000    12.069700000   0   0   0 # h
     61      1   2  0.100000     6.720870000     7.320390000    15.993700000   0   0   0 # h
     62      1   2  0.100000     8.298220000     8.379180000    14.511600000   0   0   0 # h
     63      1   2  0.100000     5.953270000    11.955500000    14.656200000   0   0   0 # h
     64      1   2  0.100000     4.136020000    10.675100000    15.715400000   0   0   0 # h
     65      1   2  0.100000    -6.825220000    13.543200000    13.802100000   0   0   0 # h
     66      1   2  0.100000     0.969358151     0.156358240    12.559600000   0   0   0 # h
     67      1   2  0.100000     5.794870000    13.594400000    10.820600000   0   0   0 # h
     68      1   2  0.100000     6.318770000    11.622300000    12.140400000   0   0   0 # h
     69      1   2  0.100000     8.210365662    13.090600000    15.833500000   0   0   0 # h
     70      1   2  0.100000    -7.432650000    13.229200000    18.108100000   0   0   0 # h
     71      1   2  0.100000    -5.283240000     9.581990000    17.507100000   0   0   0 # h
     72      1   2  0.100000    10.437725662     9.525180000    15.223900000   0   0   0 # h
     73      1   1  0.000000     7.101468151     0.916358240    24.123500000   0   0   0 # cp
     74      1   1 -0.100000     8.321850000     1.245690000    24.617000000   0   0   0 # cp
     75      1   1 -0.100000     9.333253151     0.298458240    24.659700000   0   0   0 # cp
     76      1   1  0.000000     0.746589000    14.520200000    24.109600000   0   0   0 # cp
     77      1   1 -0.100000    -0.492492000    14.228000000    23.583600000   0   0   0 # cp
     78      1   1 -0.100000     6.893678151    -0.349941760    23.637900000   0   0   0 # cp
     79      1   2  0.100000     8.480820000     2.262950000    24.909900000   0   0   0 # h
     80      1   2  0.100000    10.339708151     0.571058240    24.936100000   0   0   0 # h
     81      1   2  0.100000    -0.663832000    13.281700000    23.097800000   0   0   0 # h
     82      1   2  0.100000     5.941368151    -0.618141760    23.230100000   0   0   0 # h
     83      1   1 -0.100000     0.939767000    11.411700000    24.484800000   0   0   0 # cp
     84      1   1  0.000000     1.733540000    12.102500000    23.606700000   0   0   0 # cp
     85      1   1 -0.100000     2.431650000    11.340300000    22.671200000   0   0   0 # cp
     86      1   1 -0.100000     2.280140000     9.990880000    22.583600000   0   0   0 # cp
     87      1   1  0.000000     1.448150000     9.329600000    23.456700000   0   0   0 # cp
     88      1   1 -0.100000     0.791888000    10.054000000    24.424500000   0   0   0 # cp
     89      1   3  0.000000     2.060970000    13.631800000    23.887800000   0   0   0 # c
     90      1   1  0.000000     3.147140000    13.445800000    25.053000000   0   0   0 # cp
     91      1   1 -0.100000     4.374850000    12.864100000    24.771000000   0   0   0 # cp
     92      1   1 -0.100000     5.281450000    12.566900000    25.730300000   0   0   0 # cp
     93      1   1  0.000000     5.015900000    12.869400000    27.058400000   0   0   0 # cp
     94      1   1 -0.100000     3.845190000    13.531700000    27.344500000   0   0   0 # cp
     95      1   1 -0.100000     2.914630000    13.787000000    26.358200000   0   0   0 # cp
     96      1   1 -0.100000     2.073780000    14.328300000    21.409100000   0   0   0 # cp
     97      1   1 -0.100000     2.722230000    14.750700000    20.281300000   0   0   0 # cp
     98      1   1  0.000000    12.455308151    -0.384241760    20.328000000   0   0   0 # cp
     99      1   1 -0.100000    12.972558151    -0.094141760    21.578500000   0   0   0 # cp
    100      1   1 -0.100000    12.273908151    -0.370041760    22.727000000   0   0   0 # cp
    101      1   1  0.000000     2.696050000    14.392900000    22.638600000   0   0   0 # cp
    102      1   3  0.000000     5.041190000    14.668200000    19.152100000   0   0   0 # c
    103      1   1  0.000000     4.512580000    10.271800000    18.962900000   0   0   0 # cp
    104      1   1 -0.100000     3.670320000    11.118800000    18.261400000   0   0   0 # cp
    105      1   1 -0.100000     3.881450000    12.479100000    18.342900000   0   0   0 # cp
    106      1   1  0.000000     4.849660000    13.059700000    19.161800000   0   0   0 # cp
    107      1   1 -0.100000     5.487040000    12.168200000    20.009300000   0   0   0 # cp
    108      1   1 -0.100000     5.362740000    10.800800000    19.892800000   0   0   0 # cp
    109      1   1  0.000000    14.899223813    -0.185341760    19.406300000   0   0   0 # cp
    110      1   1 -0.100000    15.053715662     1.207810000    19.299900000   0   0   0 # cp
    111      1   1 -0.100000    -0.279768000     1.795460000    19.651400000   0   0   0 # cp
    112      1   1  0.000000     0.784648151     1.032858240    20.059300000   0   0   0 # cp
    113      1   1 -0.100000     0.649748151    -0.328641760    20.070700000   0   0   0 # cp
    114      1   1 -0.100000     7.604495662    14.559900000    19.759600000   0   0   0 # cp
    115      1   1 -0.100000     5.401470000    14.648900000    16.608300000   0   0   0 # cp
    116      1   1 -0.100000    13.596938151    -0.323841760    15.351200000   0   0   0 # cp
    117      1   1  0.000000    12.589928151     0.594958240    15.108900000   0   0   0 # cp
    118      1   1 -0.100000    11.931188151     1.136158240    16.189600000   0   0   0 # cp
    119      1   1 -0.100000    12.279848151     0.777758240    17.475600000   0   0   0 # cp
    120      1   1  0.000000    13.132528151    -0.292241760    17.682200000   0   0   0 # cp
    121      1   2  0.100000     0.467294000    12.000800000    25.251700000   0   0   0 # h
    122      1   2  0.100000     3.184290000    11.778900000    22.044700000   0   0   0 # h
    123      1   2  0.100000     2.907860000     9.408360000    21.925800000   0   0   0 # h
    124      1   2  0.100000     0.194773000     9.660500000    25.223600000   0   0   0 # h
    125      1   2  0.100000     4.607060000    12.564000000    23.793700000   0   0   0 # h
    126      1   2  0.100000     6.205580000    12.025800000    25.494400000   0   0   0 # h
    127      1   2  0.100000     3.995803031    14.671060592     0.158275750   0   0   0 # h
    128      1   2  0.100000     1.984780000    14.270100000    26.632900000   0   0   0 # h
    129      1   2  0.100000     1.102710000    13.851000000    21.273700000   0   0   0 # h
    130      1   2  0.100000     2.256900000    14.505200000    19.313500000   0   0   0 # h
    131      1   2  0.100000    13.994223813     0.187058240    21.758500000   0   0   0 # h
    132      1   2  0.100000    12.740808151    -0.121741760    23.692700000   0   0   0 # h
    133      1   2  0.100000     2.946350000    10.753500000    17.569200000   0   0   0 # h
    134      1   2  0.100000     3.223990000    13.062800000    17.743200000   0   0   0 # h
    135      1   2  0.100000     6.131770000    12.528600000    20.804600000   0   0   0 # h
    136      1   2  0.100000     6.025440000    10.181900000    20.462500000   0   0   0 # h
    137      1   2  0.100000    14.243845662     1.874440000    19.081700000   0   0   0 # h
    138      1   2  0.100000    -0.204549000     2.874480000    19.750300000   0   0   0 # h
    139      1   2  0.100000    -6.926230000    14.549800000    20.388500000   0   0   0 # h
    140      1   2  0.100000     7.604135662    13.491500000    19.741800000   0   0   0 # h
    141      1   2  0.100000     6.158330000    13.866300000    16.773500000   0   0   0 # h
    142      1   2  0.100000     5.806640000    14.729400000    14.548100000   0   0   0 # h
    143      1   2  0.100000    11.150300000     1.877740000    16.084600000   0   0   0 # h
    144      1   2  0.100000    11.806100000     1.299440000    18.290000000   0   0   0 # h
    145      1   1  0.000000     7.654720000    10.891500000     5.024570000   0   0   0 # cp
    146      1   1 -0.100000     7.134530000     9.839790000     5.733540000   0   0   0 # cp
    147      1   1 -0.100000     5.809690000     9.783890000     6.018190000   0   0   0 # cp
    148      1   1  0.000000     4.986270000    10.850500000     5.745720000   0   0   0 # cp
    149      1   1 -0.100000     5.579990000    12.027100000     5.282320000   0   0   0 # cp
    150      1   1 -0.100000     6.870640000    12.005700000     4.866310000   0   0   0 # cp
    151      1   2  0.100000     7.727830000     8.999710000     6.039970000   0   0   0 # h
    152      1   2  0.100000     5.398930000     8.880350000     6.473960000   0   0   0 # h
    153      1   2  0.100000     5.003820000    12.904200000     5.085600000   0   0   0 # h
    154      1   2  0.100000     7.252505662    12.879900000     4.316880000   0   0   0 # h
    155      1   1 -0.100000     1.517180000    12.476600000     5.929000000   0   0   0 # cp
    156      1   1  0.000000     2.562850000    11.927300000     5.201750000   0   0   0 # cp
    157      1   1 -0.100000     2.687220000    12.289300000     3.872610000   0   0   0 # cp
    158      1   1 -0.100000     1.623713031    12.780060592     3.199375750   0   0   0 # cp
    159      1   1  0.000000     0.492991000    13.150800000     3.877250000   0   0   0 # cp
    160      1   1 -0.100000     0.530928000    13.158300000     5.270450000   0   0   0 # cp
    161      1   3  0.000000     3.416810000    10.670100000     5.832610000   0   0   0 # c
    162      1   1  0.000000     3.144040000    10.208600000     7.386320000   0   0   0 # cp
    163      1   1 -0.100000     2.961440000     8.861120000     7.666320000   0   0   0 # cp
    164      1   1 -0.100000     2.469650000     8.424250000     8.875090000   0   0   0 # cp
    165      1   1  0.000000     2.187720000     9.311650000     9.891220000   0   0   0 # cp
    166      1   1 -0.100000     2.620220000    10.605400000     9.709770000   0   0   0 # cp
    167      1   1 -0.100000     3.059940000    11.088700000     8.473800000   0   0   0 # cp
    168      1   1 -0.100000     1.376990000     9.273900000     4.911520000   0   0   0 # cp
    169      1   1 -0.100000     0.704255000     8.640560000     3.896990000   0   0   0 # cp
    170      1   1  0.000000     1.424573031     8.190840592     2.793875750   0   0   0 # cp
    171      1   1 -0.100000     2.796763031     8.245610592     2.848375750   0   0   0 # cp
    172      1   1 -0.100000     3.443550000     8.979180000     3.810630000   0   0   0 # cp
    173      1   1  0.000000     2.741010000     9.538990000     4.854330000   0   0   0 # cp
    174      1   3  0.000000     0.572262031     7.594090592     1.597875750   0   0   0 # c
    175      1   1  0.000000    -2.785177368     9.774889633    -0.087989138   0   0   1 # cp
    176      1   1 -0.100000    -1.738196969    10.441940592     0.503775750   0   0   0 # cp
    177      1   1 -0.100000    -0.786536969     9.759130592     1.186075750   0   0   0 # cp
    178      1   1  0.000000    -0.784866969     8.364780592     1.204575750   0   0   0 # cp
    179      1   1 -0.100000    -1.851986969     7.671390592     0.606475750   0   0   0 # cp
    180      1   1 -0.100000    -2.868236969     8.403620592     0.001675750   0   0   0 # cp
    181      1   1  0.000000     0.307825831     6.156930592     2.233575750   0   0   0 # cp
    182      1   1 -0.100000     1.189715031     5.107770592     2.065175750   0   0   0 # cp
    183      1   1 -0.100000     0.931044031     3.875300592     2.589175750   0   0   0 # cp
    184      1   1  0.000000    -0.137288969     3.704450592     3.420875750   0   0   0 # cp
    185      1   1 -0.100000    -0.958762000     4.738350000     3.705350000   0   0   0 # cp
    186      1   1 -0.100000    -0.738276969     5.951810592     3.104875750   0   0   0 # cp
    187      1   1 -0.100000     0.798684000     5.921960000    27.441400000   0   0   0 # cp
    188      1   1 -0.100000     1.403160000     5.995070000    26.210900000   0   0   0 # cp
    189      1   1  0.000000     2.169310000     7.056090000    25.841500000   0   0   0 # cp
    190      1   1 -0.100000     2.331980000     8.084530000    26.741800000   0   0   0 # cp
    191      1   1 -0.100000     2.081722632     8.786259633    -0.177989138   0   0   1 # cp
    192      1   1  0.000000     1.335823031     7.666480592     0.203775750   0   0   0 # cp
    193      1   2  0.100000     1.341050000    12.210900000     6.963800000   0   0   0 # h
    194      1   2  0.100000     3.512343031    11.903660592     3.266775750   0   0   0 # h
    195      1   2  0.100000     1.657613031    12.807760592     2.109975750   0   0   0 # h
    196      1   2  0.100000    -0.345555000    13.548300000     5.769270000   0   0   0 # h
    197      1   2  0.100000     3.133530000     8.124910000     6.893780000   0   0   0 # h
    198      1   2  0.100000     2.276440000     7.360050000     8.906980000   0   0   0 # h
    199      1   2  0.100000     2.535310000    11.311600000    10.503400000   0   0   0 # h
    200      1   2  0.100000     3.286170000    12.146300000     8.371500000   0   0   0 # h
    201      1   2  0.100000     0.791573000     9.709440000     5.672010000   0   0   0 # h
    202      1   2  0.100000    -0.361196000     8.582860000     3.955710000   0   0   0 # h
    203      1   2  0.100000     3.356123031     7.777900592     2.082875750   0   0   0 # h
    204      1   2  0.100000     4.494800000     9.103220000     3.721300000   0   0   0 # h
    205      1   2  0.100000    -1.615496969    11.523160592     0.379275750   0   0   0 # h
    206      1   2  0.100000     0.011936031    10.305310592     1.664675750   0   0   0 # h
    207      1   2  0.100000    -1.876926969     6.590280592     0.487375750   0   0   0 # h
    208      1   2  0.100000    -3.657887368     7.867339633    -0.508989138   0   0   1 # h
    209      1   2  0.100000     2.062803031     5.235160592     1.487075750   0   0   0 # h
    210      1   2  0.100000     1.634383031     3.043550592     2.447175750   0   0   0 # h
    211      1   2  0.100000    -1.739140000     4.670110000     4.452790000   0   0   0 # h
    212      1   2  0.100000    -1.443736969     6.742030592     3.330375750   0   0   0 # h
    213      1   2  0.100000     0.475921632     5.877699633    -0.502389138   0   0   1 # h
    214      1   2  0.100000     1.169800000     5.189870000    25.486200000   0   0   0 # h
    215      1   2  0.100000     2.894520000     8.968120000    26.517800000   0   0   0 # h
    216      1   2  0.100000     2.229583031     9.592870592     0.510975750   0   0   0 # h
    217      1   1  0.000000     6.817030000     1.694580000    19.430400000   0   0   0 # cp
    218      1   1 -0.100000     7.972040000     1.492690000    18.729700000   0   0   0 # cp
    219      1   1 -0.100000     8.938360000     2.444490000    18.668100000   0   0   0 # cp
    220      1   1  0.000000     8.734480000     3.715400000    19.191300000   0   0   0 # cp
    221      1   1 -0.100000     7.494170000     3.962330000    19.788000000   0   0   0 # cp
    222      1   1 -0.100000     6.597740000     2.943290000    19.999200000   0   0   0 # cp
    223      1   2  0.100000     8.200846151     0.486158240    18.373300000   0   0   0 # h
    224      1   2  0.100000     9.882720000     2.176240000    18.227600000   0   0   0 # h
    225      1   2  0.100000     7.325770000     4.885930000    20.314900000   0   0   0 # h
    226      1   2  0.100000     5.699330000     3.137160000    20.577500000   0   0   0 # h
    227      1   1 -0.100000     8.713160000     6.920050000    19.048500000   0   0   0 # cp
    228      1   1  0.000000     9.628100000     6.216900000    19.818500000   0   0   0 # cp
    229      1   1 -0.100000    10.359855662     6.915450000    20.776900000   0   0   0 # cp
    230      1   1 -0.100000    10.227055662     8.268540000    20.897800000   0   0   0 # cp
    231      1   1  0.000000     9.358825662     8.952610000    20.109900000   0   0   0 # cp
    232      1   1 -0.100000     8.611240000     8.271930000    19.184300000   0   0   0 # cp
    233      1   3  0.000000     9.987180000     4.688830000    19.417300000   0   0   0 # c
    234      1   1  0.000000    10.942200000     4.952060000    18.150500000   0   0   0 # cp
    235      1   1 -0.100000    12.138535662     5.613680000    18.285300000   0   0   0 # cp
    236      1   1 -0.100000    -3.639350000     5.987430000    17.192700000   0   0   0 # cp
    237      1   1  0.000000    12.543055662     5.574080000    15.938300000   0   0   0 # cp
    238      1   1 -0.100000    11.395215662     4.845900000    15.778800000   0   0   0 # cp
    239      1   1 -0.100000    10.549600000     4.634200000    16.856200000   0   0   0 # cp
    240      1   1 -0.100000    10.194900000     3.908320000    21.907400000   0   0   0 # cp
    241      1   1 -0.100000    11.003300000     3.752270000    22.994900000   0   0   0 # cp
    242      1   1  0.000000    12.388195662     3.695480000    22.859900000   0   0   0 # cp
    243      1   1 -0.100000    12.827775662     3.422310000    21.563200000   0   0   0 # cp
    244      1   1 -0.100000    11.985425662     3.410690000    20.496300000   0   0   0 # cp
    245      1   1  0.000000    10.712900000     3.925060000    20.635300000   0   0   0 # cp
    246      1   3  0.000000    13.360625662     4.124730000    24.059500000   0   0   0 # c
    247      1   1  0.000000    -3.470170000     8.436160000    25.004000000   0   0   0 # cp
    248      1   1 -0.100000    -4.597960000     7.727750000    24.634600000   0   0   0 # cp
    249      1   1 -0.100000    11.997445662     6.393620000    24.356800000   0   0   0 # cp
    250      1   1  0.000000    -3.321840000     5.690140000    24.354400000   0   0   0 # cp
    251      1   1 -0.100000    -2.196240000     6.451130000    24.675900000   0   0   0 # cp
    252      1   1 -0.100000    -2.282040000     7.780200000    24.989600000   0   0   0 # cp
    253      1   1  0.000000    -1.658240000     3.614960000    23.639100000   0   0   0 # cp
    254      1   1 -0.100000    -1.235710000     2.329220000    23.952700000   0   0   0 # cp
    255      1   1 -0.100000    -0.061666600     1.840590000    23.489900000   0   0   0 # cp
    256      1   1  0.000000     0.767276000     2.628880000    22.726400000   0   0   0 # cp
    257      1   1 -0.100000     0.411565000     3.923870000    22.467100000   0   0   0 # cp
    258      1   1 -0.100000    -0.821761000     4.388220000    22.844400000   0   0   0 # cp
    259      1   1 -0.100000    -2.534140000     3.738710000    26.531500000   0   0   0 # cp
    260      1   1 -0.100000    14.171438294     3.949729633    -0.430289138   0   0   1 # cp
    261      1   1  0.000000    13.015798294     3.252779633    -0.141489138   0   0   1 # cp
    262      1   1 -0.100000    11.827400000     2.158890000    27.044500000   0   0   0 # cp
    263      1   1 -0.100000    12.061500000     2.595920000    25.771900000   0   0   0 # cp
    264      1   1  0.000000    13.085345662     3.501550000    25.497000000   0   0   0 # cp
    265      1   2  0.100000     8.171170000     6.412610000    18.264900000   0   0   0 # h
    266      1   2  0.100000    11.109665662     6.420610000    21.365500000   0   0   0 # h
    267      1   2  0.100000    10.855885662     8.769010000    21.591700000   0   0   0 # h
    268      1   2  0.100000     7.970230000     8.818790000    18.513500000   0   0   0 # h
    269      1   2  0.100000    12.476735662     5.939980000    19.254400000   0   0   0 # h
    270      1   2  0.100000    -2.773420000     6.580500000    17.386800000   0   0   0 # h
    271      1   2  0.100000    11.128500000     4.394640000    14.850400000   0   0   0 # h
    272      1   2  0.100000     9.601520000     4.160650000    16.661800000   0   0   0 # h
    273      1   2  0.100000     9.150360000     4.153560000    22.046100000   0   0   0 # h
    274      1   2  0.100000    10.512800000     3.937370000    23.950100000   0   0   0 # h
    275      1   2  0.100000    13.857015662     3.275650000    21.312100000   0   0   0 # h
    276      1   2  0.100000    12.423705662     3.234030000    19.523000000   0   0   0 # h
    277      1   2  0.100000    10.945075662     8.183260000    24.622300000   0   0   0 # h
    278      1   2  0.100000    11.029925662     5.932200000    24.305700000   0   0   0 # h
    279      1   2  0.100000    -1.209180000     6.023690000    24.847500000   0   0   0 # h
    280      1   2  0.100000    -1.370530000     8.225900000    25.353300000   0   0   0 # h
    281      1   2  0.100000    14.651805662     1.667590000    24.534300000   0   0   0 # h
    282      1   2  0.100000     0.193608151     0.787858240    23.696400000   0   0   0 # h
    283      1   2  0.100000     1.014520000     4.579210000    21.871300000   0   0   0 # h
    284      1   2  0.100000    -1.163320000     5.359340000    22.472800000   0   0   0 # h
    285      1   2  0.100000    -1.694460000     4.386470000    26.384400000   0   0   0 # h
    286      1   2  0.100000    -1.605586969     4.212100592     0.335275750   0   0   0 # h
    287      1   2  0.100000    10.934700000     1.566420000    27.228800000   0   0   0 # h
    288      1   2  0.100000    11.441100000     2.204120000    25.019100000   0   0   0 # h
    289      1   1  0.000000     6.400893031    10.900160592     0.861775750   0   0   0 # cp
    290      1   1 -0.100000     5.410983031    10.067530592     0.483475750   0   0   0 # cp
    291      1   1 -0.100000     5.592523031     8.705200592     0.569575750   0   0   0 # cp
    292      1   1  0.000000     6.819813031     8.167760592     0.996275750   0   0   0 # cp
    293      1   1 -0.100000     7.849393031     9.057410592     1.237875750   0   0   0 # cp
    294      1   1 -0.100000     7.637303031    10.405000592     1.148375750   0   0   0 # cp
    295      1   2  0.100000     4.465043031    10.519290592     0.204775750   0   0   0 # h
    296      1   2  0.100000     4.751743031     8.057260592     0.391475750   0   0   0 # h
    297      1   2  0.100000     8.825323031     8.734780592     1.566475750   0   0   0 # h
    298      1   2  0.100000     8.507208693    11.017260592     1.433075750   0   0   0 # h
    299      1   1 -0.100000     9.509923031     6.292070592     0.659475750   0   0   0 # cp
    300      1   1  0.000000     8.453483031     5.965730592     1.499275750   0   0   0 # cp
    301      1   1 -0.100000     8.734353031     5.045590592     2.511375750   0   0   0 # cp
    302      1   1 -0.100000     9.993193031     4.513930592     2.670875750   0   0   0 # cp
    303      1   1  0.000000    11.014523031     4.887370592     1.861675750   0   0   0 # cp
    304      1   1 -0.100000    10.765423031     5.762970592     0.818775750   0   0   0 # cp
    305      1   3  0.000000     6.989443031     6.559500592     1.252975750   0   0   0 # c
    306      1   1  0.000000     6.490693031     5.561920592     0.090475750   0   0   0 # cp
    307      1   1 -0.100000     6.307233031     4.186700592     0.328075750   0   0   0 # cp
    308      1   1 -0.100000     5.666230000     2.559020000    27.469700000   0   0   0 # cp
    309      1   1  0.000000     5.547690000     3.069880000    26.201400000   0   0   0 # cp
    310      1   1 -0.100000     5.700380000     4.401720000    25.961700000   0   0   0 # cp
    311      1   1 -0.100000     6.047190000     5.247810000    26.982300000   0   0   0 # cp
    312      1   1 -0.100000     6.575460000     6.997070000     3.722960000   0   0   0 # cp
    313      1   1 -0.100000     6.182110000     6.499000000     4.941320000   0   0   0 # cp
    314      1   1  0.000000     5.244950000     5.488350000     5.031790000   0   0   0 # cp
    315      1   1 -0.100000     4.610140000     5.137850000     3.840030000   0   0   0 # cp
    316      1   1 -0.100000     4.978193031     5.673270592     2.641175750   0   0   0 # cp
    317      1   1  0.000000     6.121593031     6.443840592     2.555875750   0   0   0 # cp
    318      1   3  0.000000     5.136820000     4.505490000     6.333350000   0   0   0 # c
    319      1   1  0.000000     8.959710000     2.361710000     6.480140000   0   0   0 # cp
    320      1   1 -0.100000     7.905440000     1.768790000     5.801000000   0   0   0 # cp
    321      1   1 -0.100000     6.713060000     2.445230000     5.665260000   0   0   0 # cp
    322      1   1  0.000000     6.534650000     3.672830000     6.275990000   0   0   0 # cp
    323      1   1 -0.100000     7.637790000     4.305670000     6.820490000   0   0   0 # cp
    324      1   1 -0.100000     8.850350000     3.663670000     6.871460000   0   0   0 # cp
    325      1   1  0.000000     3.716190000     3.859140000     6.300460000   0   0   0 # cp
    326      1   1 -0.100000     2.588620000     4.670800000     6.356660000   0   0   0 # cp
    327      1   1 -0.100000     1.326840000     4.166350000     6.249920000   0   0   0 # cp
    328      1   1  0.000000     1.157220000     2.846030000     6.019020000   0   0   0 # cp
    329      1   1 -0.100000     2.212120000     2.003320000     6.026440000   0   0   0 # cp
    330      1   1 -0.100000     3.481560000     2.489320000     6.228350000   0   0   0 # cp
    331      1   1 -0.100000     4.953770000     4.040600000     8.878010000   0   0   0 # cp
    332      1   1 -0.100000     5.094410000     4.314200000    10.206400000   0   0   0 # cp
    333      1   1  0.000000     5.505220000     5.542960000    10.609400000   0   0   0 # cp
    334      1   1 -0.100000     5.585620000     6.562710000     9.675970000   0   0   0 # cp
    335      1   1 -0.100000     5.328250000     6.299730000     8.336740000   0   0   0 # cp
    336      1   1  0.000000     5.063270000     5.022220000     7.892980000   0   0   0 # cp
    337      1   2  0.100000     9.344672632     6.937779633    -0.189289138   0   0   1 # h
    338      1   2  0.100000     7.945473031     4.696940592     3.156575750   0   0   0 # h
    339      1   2  0.100000    10.102933031     3.758930592     3.435975750   0   0   0 # h
    340      1   2  0.100000    11.558688693     6.045140592     0.137675750   0   0   0 # h
    341      1   2  0.100000     6.442863031     3.732830592     1.303475750   0   0   0 # h
    342      1   2  0.100000     5.733872632     2.286869633    -0.506189138   0   0   1 # h
    343      1   2  0.100000     5.593050000     4.794460000    24.959400000   0   0   0 # h
    344      1   2  0.100000     6.266690000     6.276180000    26.744200000   0   0   0 # h
    345      1   2  0.100000     7.432340000     7.652800000     3.671080000   0   0   0 # h
    346      1   2  0.100000     6.696800000     6.796400000     5.842090000   0   0   0 # h
    347      1   2  0.100000     3.835580000     4.400050000     3.811980000   0   0   0 # h
    348      1   2  0.100000     4.447953031     5.349020592     1.768875750   0   0   0 # h
    349      1   2  0.100000     7.969174151     0.743958240     5.459750000   0   0   0 # h
    350      1   2  0.100000     5.915710000     1.969200000     5.106000000   0   0   0 # h
    351      1   2  0.100000     7.596170000     5.278100000     7.279310000   0   0   0 # h
    352      1   2  0.100000     9.665590000     4.129590000     7.372410000   0   0   0 # h
    353      1   2  0.100000     2.705900000     5.740120000     6.349980000   0   0   0 # h
    354      1   2  0.100000     0.487396000     4.830860000     6.221660000   0   0   0 # h
    355      1   2  0.100000     2.077468151     0.955258240     5.848840000   0   0   0 # h
    356      1   2  0.100000     4.293500000     1.788900000     6.238390000   0   0   0 # h
    357      1   2  0.100000     4.835180000     2.996960000     8.580670000   0   0   0 # h
    358      1   2  0.100000     5.029480000     3.476560000    10.903500000   0   0   0 # h
    359      1   2  0.100000     5.963290000     7.537460000     9.960180000   0   0   0 # h
    360      1   2  0.100000     5.529720000     7.084620000     7.638240000   0   0   0 # h
    361      1   1  0.000000    -1.600620000     8.078330000    14.849000000   0   0   0 # cp
    362      1   1 -0.100000    -2.713790000     8.883310000    15.063800000   0   0   0 # cp
    363      1   1 -0.100000    -2.654470000    10.240800000    14.845500000   0   0   0 # cp
    364      1   1  0.000000    -1.493770000    10.839900000    14.426900000   0   0   0 # cp
    365      1   1 -0.100000    -0.367077000    10.022700000    14.242900000   0   0   0 # cp
    366      1   1 -0.100000    -0.401169000     8.658050000    14.483800000   0   0   0 # cp
    367      1   2  0.100000    -3.656810000     8.417890000    15.292800000   0   0   0 # h
    368      1   2  0.100000    -3.543970000    10.846000000    14.999500000   0   0   0 # h
    369      1   2  0.100000     0.570580000    10.413900000    13.891200000   0   0   0 # h
    370      1   2  0.100000     0.434923000     8.041500000    14.227600000   0   0   0 # h
    371      1   1 -0.100000     1.036760000    12.914400000    14.417000000   0   0   0 # cp
    372      1   1  0.000000    -0.165005000    13.192900000    13.772200000   0   0   0 # cp
    373      1   1 -0.100000    -0.140906000    14.248500000    12.844600000   0   0   0 # cp
    374      1   1 -0.100000     1.022940000    14.882800000    12.512900000   0   0   0 # cp
    375      1   1  0.000000     2.202330000    14.566800000    13.149100000   0   0   0 # cp
    376      1   1 -0.100000     2.202050000    13.591500000    14.111600000   0   0   0 # cp
    377      1   3  0.000000    -1.545690000    12.434500000    14.130300000   0   0   0 # c
    378      1   1  0.000000    -2.085010000    13.338700000    15.367700000   0   0   0 # cp
    379      1   1 -0.100000    -2.383490000    14.691900000    15.213700000   0   0   0 # cp
    380      1   1 -0.100000     5.561978151    -0.002441760    16.271400000   0   0   0 # cp
    381      1   1  0.000000    -2.991600000    14.878000000    17.511300000   0   0   0 # cp
    382      1   1 -0.100000    -2.591350000    13.597900000    17.688000000   0   0   0 # cp
    383      1   1 -0.100000    -2.105860000    12.859000000    16.659800000   0   0   0 # cp
    384      1   1 -0.100000    -1.981690000    11.815500000    11.697200000   0   0   0 # cp
    385      1   1 -0.100000    -2.415430000    12.176400000    10.439600000   0   0   0 # cp
    386      1   1  0.000000    -3.395750000    13.122700000    10.265600000   0   0   0 # cp
    387      1   1 -0.100000    -4.040630000    13.542400000    11.441500000   0   0   0 # cp
    388      1   1 -0.100000    -3.636870000    13.121900000    12.685900000   0   0   0 # cp
    389      1   1  0.000000    -2.483060000    12.404300000    12.840300000   0   0   0 # cp
    390      1   3  0.000000    -3.490280000    13.919900000     8.878420000   0   0   0 # c
    391      1   1  0.000000     8.741369151     0.577858240     8.939480000   0   0   0 # cp
    392      1   1 -0.100000     0.223231000    14.770600000     8.473420000   0   0   0 # cp
    393      1   1 -0.100000    -1.005330000    14.203900000     8.436480000   0   0   0 # cp
    394      1   1  0.000000    -2.138270000    14.815400000     8.937720000   0   0   0 # cp
    395      1   1 -0.100000     6.446368151     0.545258240     9.564440000   0   0   0 # cp
    396      1   1 -0.100000     7.658377151     1.208258240     9.544090000   0   0   0 # cp
    397      1   1  0.000000    -4.966150000    14.509700000     8.878330000   0   0   0 # cp
    398      1   1 -0.100000    -6.038860000    13.606900000     8.903300000   0   0   0 # cp
    399      1   1 -0.100000    -7.303150000    14.080800000     9.018800000   0   0   0 # cp
    400      1   1  0.000000     0.833708151    -0.044341760     9.062840000   0   0   0 # cp
    401      1   1 -0.100000     1.873408151     0.832558240     9.011470000   0   0   0 # cp
    402      1   1 -0.100000     3.175318151     0.380158240     8.946270000   0   0   0 # cp
    403      1   1 -0.100000    -3.764950000    14.108900000     6.338470000   0   0   0 # cp
    404      1   1 -0.100000    -3.375990000    13.789100000     5.075390000   0   0   0 # cp
    405      1   1  0.000000    -2.766030000    12.604600000     4.794100000   0   0   0 # cp
    406      1   1 -0.100000    -2.607410000    11.696900000     5.806770000   0   0   0 # cp
    407      1   1 -0.100000    -2.968620000    12.012700000     7.087480000   0   0   0 # cp
    408      1   1  0.000000    -3.462670000    13.264200000     7.392370000   0   0   0 # cp
    409      1   2  0.100000     1.030350000    12.193700000    15.223600000   0   0   0 # h
    410      1   2  0.100000    -1.019150000    14.554400000    12.330700000   0   0   0 # h
    411      1   2  0.100000     9.386438151     0.161658240    11.743700000   0   0   0 # h
    412      1   2  0.100000     3.071640000    13.308500000    14.649300000   0   0   0 # h
    413      1   2  0.100000     6.060048151    -0.333841760    14.239200000   0   0   0 # h
    414      1   2  0.100000     5.267888151     1.040858240    16.087100000   0   0   0 # h
    415      1   2  0.100000    -2.669670000    13.183800000    18.676700000   0   0   0 # h
    416      1   2  0.100000    -1.755800000    11.852700000    16.867900000   0   0   0 # h
    417      1   2  0.100000    -1.088230000    11.203400000    11.745500000   0   0   0 # h
    418      1   2  0.100000    -1.875820000    11.717900000     9.632190000   0   0   0 # h
    419      1   2  0.100000    -4.848690000    14.283700000    11.392700000   0   0   0 # h
    420      1   2  0.100000    -4.126210000    13.493900000    13.585000000   0   0   0 # h
    421      1   2  0.100000     1.044030000    14.278900000     7.957440000   0   0   0 # h
    422      1   2  0.100000    -1.001300000    13.215500000     8.055840000   0   0   0 # h
    423      1   2  0.100000     5.641118151     0.997858240    10.091300000   0   0   0 # h
    424      1   2  0.100000     7.732860000     2.224500000     9.948800000   0   0   0 # h
    425      1   2  0.100000    -5.889860000    12.545400000     8.881560000   0   0   0 # h
    426      1   2  0.100000     8.365075662    13.417700000     9.048820000   0   0   0 # h
    427      1   2  0.100000     1.607130000     1.869120000     9.138250000   0   0   0 # h
    428      1   2  0.100000     3.928798151     1.102758240     8.918150000   0   0   0 # h
    429      1   2  0.100000    -4.197620000    15.096400000     6.418860000   0   0   0 # h
    430      1   2  0.100000    -3.441100000    14.559600000     4.331930000   0   0   0 # h
    431      1   2  0.100000    -2.129900000    10.724200000     5.653310000   0   0   0 # h
    432      1   2  0.100000    -2.723740000    11.265100000     7.844010000   0   0   0 # h
    433      1   4 -0.200000    10.155900000     1.572250000     6.967090000   0   0   0 # c2
    434      1   4 -0.200000    10.024468151     1.298758240     8.517400000   0   0   0 # c2
    435      1   2  0.100000    10.214928151     0.650158240     6.362080000   0   0   0 # h
    436      1   2  0.100000    11.114100000     2.116060000     6.766470000   0   0   0 # h
    437      1   2  0.100000    10.087400000     2.279710000     9.054820000   0   0   0 # h
    438      1   2  0.100000    10.908998151     0.692058240     8.849900000   0   0   0 # h
    439      1   4 -0.200000     4.839158151     0.187158240    18.693000000   0   0   0 # c2
    440      1   4 -0.200000     5.858028151     0.574158240    19.814400000   0   0   0 # c2
    441      1   2  0.100000     4.034358151    -0.435141760    19.132900000   0   0   0 # h
    442      1   2  0.100000     4.337088151     1.119958240    18.331400000   0   0   0 # h
    443      1   2  0.100000     6.423588151    -0.327741760    20.152800000   0   0   0 # h
    444      1   2  0.100000     5.256708151     0.918558240    20.695900000   0   0   0 # h
    445      1   4 -0.200000    -3.007230000     5.792560000    14.761800000   0   0   0 # c2
    446      1   4 -0.200000    -1.660560000     6.543180000    14.959900000   0   0   0 # c2
    447      1   2  0.100000    -2.793890000     4.765900000    14.376500000   0   0   0 # h
    448      1   2  0.100000    -3.538300000     6.250170000    13.925200000   0   0   0 # h
    449      1   2  0.100000    -1.123530000     6.253550000    15.888100000   0   0   0 # h
    450      1   2  0.100000    -1.043280000     6.145570000    14.154900000   0   0   0 # h
    451      1   4 -0.200000    12.739408693     2.994760592     1.328275750   0   0   0 # c2
    452      1   4 -0.200000    12.416018693     4.265530592     2.149975750   0   0   0 # c2
    453      1   2  0.100000    11.918823031     2.223430592     1.459175750   0   0   0 # h
    454      1   2  0.100000    13.688818693     2.533660592     1.726275750   0   0   0 # h
    455      1   2  0.100000    13.176488693     5.025970592     2.059075750   0   0   0 # h
    456      1   2  0.100000    12.475238693     3.962620592     3.206775750   0   0   0 # h
    457      1   4 -0.200000    -0.226456000     2.341810000     5.656120000   0   0   0 # c2
    458      1   4 -0.200000    -0.460189000     2.363260000     4.104800000   0   0   0 # c2
    459      1   2  0.100000    -0.368571849     1.360558240     6.091710000   0   0   0 # h
    460      1   2  0.100000    -0.974734000     3.025510000     6.118690000   0   0   0 # h
    461      1   2  0.100000    14.993665662     2.097370000     3.852840000   0   0   0 # h
    462      1   2  0.100000     0.149211181     1.569018832     3.647475750   0   0   0 # h
    463      1   4 -0.200000    -2.015976969    12.433860592     3.457875750   0   0   0 # c2
    464      1   4 -0.200000    -0.856796969    13.400160592     3.143075750   0   0   0 # c2
    465      1   2  0.100000    -2.761286969    12.506060592     2.613975750   0   0   0 # h
    466      1   2  0.100000    -1.673486969    11.373760592     3.381275750   0   0   0 # h
    467      1   2  0.100000    -1.142286969    14.448360592     3.356075750   0   0   0 # h
    468      1   2  0.100000    -0.699446969    13.383560592     2.043875750   0   0   0 # h
    469      1   4 -0.200000    -4.063650000     9.725480000    27.133800000   0   0   0 # c2
    470      1   4 -0.200000    -3.556110000     9.809180000    25.685500000   0   0   0 # c2
    471      1   2  0.100000    -5.022190000     9.208130000    27.205600000   0   0   0 # h
    472      1   2  0.100000    -4.287260000    10.753100000    27.527700000   0   0   0 # h
    473      1   2  0.100000    -4.363730000    10.330300000    25.093100000   0   0   0 # h
    474      1   2  0.100000    -2.626620000    10.426100000    25.562600000   0   0   0 # h
    475      1   4 -0.200000     5.027220000     2.218130000    25.053400000   0   0   0 # c2
    476      1   4 -0.200000     6.011770000     1.997540000    23.901000000   0   0   0 # c2
    477      1   2  0.100000     4.638250000     1.265120000    25.453200000   0   0   0 # h
    478      1   2  0.100000     4.119480000     2.702420000    24.657900000   0   0   0 # h
    479      1   2  0.100000     5.409900000     1.719890000    23.031000000   0   0   0 # h
    480      1   2  0.100000     6.473310000     2.946510000    23.605700000   0   0   0 # h
    481      1   4 -0.200000     6.439422632    13.346159633    -0.087089138   0   0   1 # c2
    482      1   4 -0.200000     6.088113031    12.378160592     1.068775750   0   0   0 # c2
    483      1   2  0.100000     7.035975662    12.221200000    27.576200000   0   0   0 # h
    484      1   2  0.100000     6.706028693    14.298360592     0.387275750   0   0   0 # h
    485      1   2  0.100000     6.688253031    12.722260592     1.954075750   0   0   0 # h
    486      1   2  0.100000     5.035893031    12.488460592     1.380375750   0   0   0 # h
    487      1   4 -0.200000     2.026670000     1.696520000    20.629800000   0   0   0 # c2
    488      1   4 -0.200000     2.037350000     1.961340000    22.154900000   0   0   0 # c2
    489      1   2  0.100000     2.149860000     2.686060000    20.149800000   0   0   0 # h
    490      1   2  0.100000     2.930668151     1.120658240    20.352400000   0   0   0 # h
    491      1   2  0.100000     2.893400000     2.650490000    22.339400000   0   0   0 # h
    492      1   2  0.100000     2.336358151     1.029258240    22.688500000   0   0   0 # h
    493      1   4 -0.200000     2.590000000     7.224610000    24.387400000   0   0   0 # c2
    494      1   4 -0.200000     1.495550000     7.822290000    23.436600000   0   0   0 # c2
    495      1   2  0.100000     3.505680000     7.853430000    24.372800000   0   0   0 # h
    496      1   2  0.100000     2.907810000     6.249300000    23.976900000   0   0   0 # h
    497      1   2  0.100000     1.703660000     7.469590000    22.424500000   0   0   0 # h
    498      1   2  0.100000     0.510137000     7.421700000    23.736500000   0   0   0 # h
    499      1   4 -0.200000    12.226848151     1.037258240    13.694800000   0   0   0 # c2
    500      1   4 -0.200000    11.876458151    -0.162841760    12.773500000   0   0   0 # c2
    501      1   2  0.100000    11.394200000     1.760700000    13.709500000   0   0   0 # h
    502      1   2  0.100000    13.086825662     1.589990000    13.285500000   0   0   0 # h
    503      1   2  0.100000    11.810268151     0.164058240    11.739500000   0   0   0 # h
    504      1   2  0.100000     4.297260000    14.608400000    12.810500000   0   0   0 # h
    505      1   4 -0.200000     1.610760000     8.865350000    11.246500000   0   0   0 # c2
    506      1   4 -0.200000     0.757056000     7.540680000    11.287900000   0   0   0 # c2
    507      1   2  0.100000     2.471320000     8.727680000    11.919600000   0   0   0 # h
    508      1   2  0.100000     1.077590000     9.726120000    11.683200000   0   0   0 # h
    509      1   2  0.100000     1.238970000     6.771410000    10.668800000   0   0   0 # h
    510      1   2  0.100000     0.798467000     7.085800000    12.293700000   0   0   0 # h
    511      1   4 -0.200000     9.993955662     9.789150000     4.616770000   0   0   0 # c2
    512      1   4 -0.200000     9.093625662    11.039900000     4.562510000   0   0   0 # c2
    513      1   2  0.100000    10.866195662     9.953750000     3.971270000   0   0   0 # h
    514      1   2  0.100000     9.453355662     8.971820000     4.078610000   0   0   0 # h
    515      1   2  0.100000     9.115968693    11.457460592     3.541375750   0   0   0 # h
    516      1   2  0.100000     9.558145662    11.878600000     5.122850000   0   0   0 # h
    517      1   4 -0.200000    15.502203813     0.553058240    10.782900000   0   0   0 # c2
    518      1   4 -0.200000    15.881773813     0.388058240     9.280430000   0   0   0 # c2
    519      1   2  0.100000    14.474723813     0.881258240    10.839200000   0   0   0 # h
    520      1   2  0.100000    -0.424126000     1.402900000    11.185600000   0   0   0 # h
    521      1   2  0.100000    -0.742251849     1.337458240     8.758490000   0   0   0 # h
    522      1   2  0.100000     6.730035662    15.190300000     8.760980000   0   0   0 # h
    523      1   4 -0.200000     6.086380000     5.644480000    12.039300000   0   0   0 # c2
    524      1   4 -0.200000     7.276240000     4.681040000    12.329400000   0   0   0 # c2
    525      1   2  0.100000     6.425360000     6.661280000    12.278200000   0   0   0 # h
    526      1   2  0.100000     5.275130000     5.444810000    12.740300000   0   0   0 # h
    527      1   2  0.100000     7.082460000     3.656000000    11.962500000   0   0   0 # h
    528      1   2  0.100000     7.360260000     4.597070000    13.418600000   0   0   0 # h
    529      1   4 -0.200000    -6.080940000    11.219100000    19.442000000   0   0   0 # c2
    530      1   4 -0.200000     9.284045662    10.497400000    20.155900000   0   0   0 # c2
    531      1   2  0.100000    -5.115200000    10.697200000    19.637000000   0   0   0 # h
    532      1   2  0.100000    -5.977370000    12.230700000    19.873800000   0   0   0 # h
    533      1   2  0.100000     8.310915662    10.897700000    19.782200000   0   0   0 # h
    534      1   2  0.100000     9.337085662    10.849900000    21.211300000   0   0   0 # h
    535      1   4 -0.200000     4.407030000     8.340940000    17.087700000   0   0   0 # c2
    536      1   4 -0.200000     4.601680000     8.787800000    18.588600000   0   0   0 # c2
    537      1   2  0.100000     4.543960000     7.238300000    17.073200000   0   0   0 # h
    538      1   2  0.100000     3.370320000     8.521270000    16.777800000   0   0   0 # h
    539      1   2  0.100000     5.591690000     8.433020000    18.866200000   0   0   0 # h
    540      1   2  0.100000     3.922040000     8.187660000    19.208800000   0   0   0 # h
    541      1   1  0.000000    15.784442662     7.613380000    10.893000000   0   0   0 # cp
    542      1   1 -0.100000    15.219905662     8.738770000    10.374600000   0   0   0 # cp
    543      1   1 -0.100000    13.903015662     8.767660000    10.072300000   0   0   0 # cp
    544      1   1  0.000000    13.070285662     7.645020000    10.261800000   0   0   0 # cp
    545      1   1 -0.100000    13.719815662     6.471000000    10.663400000   0   0   0 # cp
    546      1   1 -0.100000    15.044705662     6.452760000    11.013400000   0   0   0 # cp
    547      1   2  0.100000    15.845755662     9.591930000    10.166500000   0   0   0 # h
    548      1   2  0.100000    13.479175662     9.676020000     9.667740000   0   0   0 # h
    549      1   2  0.100000    -3.350118675     5.560910000    10.773100000   1   0   0 # h
    550      1   2  0.100000    15.473025662     5.508050000    11.312400000   0   0   0 # h
    551      1   1 -0.100000    -6.771154338     5.806930000     9.759450000   1   0   0 # cp
    552      1   1  0.000000    -5.840828675     6.481880000    10.532900000   1   0   0 # cp
    553      1   1 -0.100000    -5.869018675     6.239000000    11.921200000   1   0   0 # cp
    554      1   1 -0.100000    -6.950404338     5.650230000    12.518200000   1   0   0 # cp
    555      1   1  0.000000    -7.922864338     5.125430000    11.727700000   1   0   0 # cp
    556      1   1 -0.100000    -7.761094338     5.063100000    10.371300000   1   0   0 # cp
    557      1   3  0.000000    -5.031388675     7.753390000     9.984330000   1   0   0 # c
    558      1   1  0.000000    -5.236398675     8.272190000     8.464380000   1   0   0 # cp
    559      1   1 -0.100000    11.199255662     9.645800000     8.219720000   0   0   0 # cp
    560      1   1 -0.100000    -5.798578675    10.109100000     7.033250000   1   0   0 # cp
    561      1   1  0.000000    -6.042428675     9.249620000     5.979300000   1   0   0 # cp
    562      1   1 -0.100000    -5.701458675     7.908380000     6.145280000   1   0   0 # cp
    563      1   1 -0.100000    -5.323948675     7.411900000     7.363610000   1   0   0 # cp
    564      1   1 -0.100000    -7.133468675     9.043670000    10.778300000   1   0   0 # cp
    565      1   1 -0.100000    -7.826708675     9.694750000    11.758500000   1   0   0 # cp
    566      1   1  0.000000    -7.187088675    10.381500000    12.768600000   1   0   0 # cp
    567      1   1 -0.100000    10.715585662    10.389800000    12.753400000   0   0   0 # cp
    568      1   1 -0.100000    11.406075662     9.516210000    11.939100000   0   0   0 # cp
    569      1   1  0.000000    -5.762178675     8.855790000    10.912900000   1   0   0 # cp
    570      1   3  0.000000    -8.004578675    11.129300000    13.909100000   1   0   0 # c
    571      1   1  0.000000   -11.133004338     8.978360000    16.047100000   1   0   0 # cp
    572      1   1 -0.100000    -9.997004338     8.321320000    15.662100000   1   0   0 # cp
    573      1   1 -0.100000    -9.085934338     8.926950000    14.837400000   1   0   0 # cp
    574      1   1  0.000000    -9.229054338    10.247900000    14.459600000   1   0   0 # cp
    575      1   1 -0.100000   -10.423304338    10.892900000    14.826000000   1   0   0 # cp
    576      1   1 -0.100000   -11.421724338    10.204600000    15.479700000   1   0   0 # cp
    577      1   1  0.000000    -8.442818675    12.443600000    13.083200000   1   0   0 # cp
    578      1   1 -0.100000     8.790705662    13.614700000    13.199600000   0   0   0 # cp
    579      1   1 -0.100000     8.455805662    14.760900000    12.517400000   0   0   0 # cp
    580      1   1  0.000000    -9.163118675    14.785400000    11.702000000   1   0   0 # cp
    581      1   1 -0.100000    -9.912208675    13.635900000    11.559200000   1   0   0 # cp
    582      1   1 -0.100000    -9.559004338    12.472500000    12.246700000   1   0   0 # cp
    583      1   1 -0.100000    -7.609638675    12.334800000    16.163900000   1   0   0 # cp
    584      1   1 -0.100000     9.381585662    12.398300000    17.447000000   0   0   0 # cp
    585      1   1  0.000000    10.138665662    11.355500000    17.942100000   0   0   0 # cp
    586      1   1 -0.100000    10.624185662    10.396400000    17.094500000   0   0   0 # cp
    587      1   1 -0.100000    -6.346558675    10.355100000    15.820800000   1   0   0 # cp
    588      1   1  0.000000    -7.248488675    11.297200000    15.312000000   1   0   0 # cp
    589      1   2  0.100000    -6.866384338     5.937370000     8.678820000   1   0   0 # h
    590      1   2  0.100000    -5.178898675     6.783960000    12.555500000   1   0   0 # h
    591      1   2  0.100000    -7.025554338     5.659710000    13.584000000   1   0   0 # h
    592      1   2  0.100000    -8.484944338     4.579780000     9.750000000   1   0   0 # h
    593      1   2  0.100000    11.463885662    10.377900000     8.958890000   0   0   0 # h
    594      1   2  0.100000    10.584755662    11.181400000     6.900300000   0   0   0 # h
    595      1   2  0.100000    -5.776448675     7.185180000     5.348480000   1   0   0 # h
    596      1   2  0.100000    -5.151038675     6.345700000     7.464340000   1   0   0 # h
    597      1   2  0.100000    -7.666264338     8.612620000     9.959280000   1   0   0 # h
    598      1   2  0.100000    -8.888124338     9.716380000    11.674500000   1   0   0 # h
    599      1   2  0.100000    11.279265662    11.014800000    13.454900000   0   0   0 # h
    600      1   2  0.100000    12.503995662     9.448940000    12.069700000   0   0   0 # h
    601      1   2  0.100000    -9.793424338     7.320390000    15.993700000   1   0   0 # h
    602      1   2  0.100000    -8.216074338     8.379180000    14.511600000   1   0   0 # h
    603      1   2  0.100000   -10.561024338    11.955500000    14.656200000   1   0   0 # h
    604      1   2  0.100000   -12.378274338    10.675100000    15.715400000   1   0   0 # h
    605      1   2  0.100000     9.689085662    13.543200000    13.802100000   0   0   0 # h
    606      1   2  0.100000    17.483663813     0.156358240    12.559600000   0   0   0 # h
    607      1   2  0.100000   -10.719424338    13.594400000    10.820600000   1   0   0 # h
    608      1   2  0.100000   -10.195524338    11.622300000    12.140400000   1   0   0 # h
    609      1   2  0.100000    -8.303928675    13.090600000    15.833500000   1   0   0 # h
    610      1   2  0.100000     9.081655662    13.229200000    18.108100000   0   0   0 # h
    611      1   2  0.100000    11.231065662     9.581990000    17.507100000   0   0   0 # h
    612      1   2  0.100000    -6.076568675     9.525180000    15.223900000   1   0   0 # h
    613      1   1  0.000000    -9.412826187     0.916358240    24.123500000   1   0   0 # cp
    614      1   1 -0.100000    -8.192444338     1.245690000    24.617000000   1   0   0 # cp
    615      1   1 -0.100000    -7.181041187     0.298458240    24.659700000   1   0   0 # cp
    616      1   1  0.000000   -15.767705338    14.520200000    24.109600000   1   0   0 # cp
    617      1   1 -0.100000    16.021813662    14.228000000    23.583600000   0   0   0 # cp
    618      1   1 -0.100000    23.407983813    -0.349941760    23.637900000   0   0   0 # cp
    619      1   2  0.100000    -8.033474338     2.262950000    24.909900000   1   0   0 # h
    620      1   2  0.100000    -6.174586187     0.571058240    24.936100000   1   0   0 # h
    621      1   2  0.100000    15.850473662    13.281700000    23.097800000   0   0   0 # h
    622      1   2  0.100000    22.455673813    -0.618141760    23.230100000   0   0   0 # h
    623      1   1 -0.100000    17.454072662    11.411700000    24.484800000   0   0   0 # cp
    624      1   1  0.000000   -14.780754338    12.102500000    23.606700000   1   0   0 # cp
    625      1   1 -0.100000   -14.082644338    11.340300000    22.671200000   1   0   0 # cp
    626      1   1 -0.100000   -14.234154338     9.990880000    22.583600000   1   0   0 # cp
    627      1   1  0.000000    17.962455662     9.329600000    23.456700000   0   0   0 # cp
    628      1   1 -0.100000    17.306193662    10.054000000    24.424500000   0   0   0 # cp
    629      1   3  0.000000   -14.453324338    13.631800000    23.887800000   1   0   0 # c
    630      1   1  0.000000   -13.367154338    13.445800000    25.053000000   1   0   0 # cp
    631      1   1 -0.100000   -12.139444338    12.864100000    24.771000000   1   0   0 # cp
    632      1   1 -0.100000   -11.232844338    12.566900000    25.730300000   1   0   0 # cp
    633      1   1  0.000000   -11.498394338    12.869400000    27.058400000   1   0   0 # cp
    634      1   1 -0.100000   -12.669104338    13.531700000    27.344500000   1   0   0 # cp
    635      1   1 -0.100000   -13.599664338    13.787000000    26.358200000   1   0   0 # cp
    636      1   1 -0.100000   -14.440514338    14.328300000    21.409100000   1   0   0 # cp
    637      1   1 -0.100000   -13.792064338    14.750700000    20.281300000   1   0   0 # cp
    638      1   1  0.000000    -4.058986187    -0.384241760    20.328000000   1   0   0 # cp
    639      1   1 -0.100000    -3.541736187    -0.094141760    21.578500000   1   0   0 # cp
    640      1   1 -0.100000    -4.240386187    -0.370041760    22.727000000   1   0   0 # cp
    641      1   1  0.000000   -13.818244338    14.392900000    22.638600000   1   0   0 # cp
    642      1   3  0.000000   -11.473104338    14.668200000    19.152100000   1   0   0 # c
    643      1   1  0.000000   -12.001714338    10.271800000    18.962900000   1   0   0 # cp
    644      1   1 -0.100000   -12.843974338    11.118800000    18.261400000   1   0   0 # cp
    645      1   1 -0.100000   -12.632844338    12.479100000    18.342900000   1   0   0 # cp
    646      1   1  0.000000   -11.664634338    13.059700000    19.161800000   1   0   0 # cp
    647      1   1 -0.100000   -11.027254338    12.168200000    20.009300000   1   0   0 # cp
    648      1   1 -0.100000   -11.151554338    10.800800000    19.892800000   1   0   0 # cp
    649      1   1  0.000000    -1.615070524    -0.185341760    19.406300000   1   0   0 # cp
    650      1   1 -0.100000    -1.460578675     1.207810000    19.299900000   1   0   0 # cp
    651      1   1 -0.100000    16.234537662     1.795460000    19.651400000   0   0   0 # cp
    652      1   1  0.000000    17.298953813     1.032858240    20.059300000   0   0   0 # cp
    653      1   1 -0.100000    17.164053813    -0.328641760    20.070700000   0   0   0 # cp
    654      1   1 -0.100000    -8.909798675    14.559900000    19.759600000   1   0   0 # cp
    655      1   1 -0.100000   -11.112824338    14.648900000    16.608300000   1   0   0 # cp
    656      1   1 -0.100000    -2.917356187    -0.323841760    15.351200000   1   0   0 # cp
    657      1   1  0.000000    -3.924366187     0.594958240    15.108900000   1   0   0 # cp
    658      1   1 -0.100000    -4.583106187     1.136158240    16.189600000   1   0   0 # cp
    659      1   1 -0.100000    -4.234446187     0.777758240    17.475600000   1   0   0 # cp
    660      1   1  0.000000    -3.381766187    -0.292241760    17.682200000   1   0   0 # cp
    661      1   2  0.100000    16.981599662    12.000800000    25.251700000   0   0   0 # h
    662      1   2  0.100000   -13.330004338    11.778900000    22.044700000   1   0   0 # h
    663      1   2  0.100000   -13.606434338     9.408360000    21.925800000   1   0   0 # h
    664      1   2  0.100000    16.709078662     9.660500000    25.223600000   0   0   0 # h
    665      1   2  0.100000   -11.907234338    12.564000000    23.793700000   1   0   0 # h
    666      1   2  0.100000   -10.308714338    12.025800000    25.494400000   1   0   0 # h
    667      1   2  0.100000   -12.518491307    14.671060592     0.158275750   1   0   0 # h
    668      1   2  0.100000   -14.529514338    14.270100000    26.632900000   1   0   0 # h
    669      1   2  0.100000   -15.411584338    13.851000000    21.273700000   1   0   0 # h
    670      1   2  0.100000   -14.257394338    14.505200000    19.313500000   1   0   0 # h
    671      1   2  0.100000    -2.520070524     0.187058240    21.758500000   1   0   0 # h
    672      1   2  0.100000    -3.773486187    -0.121741760    23.692700000   1   0   0 # h
    673      1   2  0.100000   -13.567944338    10.753500000    17.569200000   1   0   0 # h
    674      1   2  0.100000   -13.290304338    13.062800000    17.743200000   1   0   0 # h
    675      1   2  0.100000   -10.382524338    12.528600000    20.804600000   1   0   0 # h
    676      1   2  0.100000   -10.488854338    10.181900000    20.462500000   1   0   0 # h
    677      1   2  0.100000    -2.270448675     1.874440000    19.081700000   1   0   0 # h
    678      1   2  0.100000    16.309756662     2.874480000    19.750300000   0   0   0 # h
    679      1   2  0.100000     9.588075662    14.549800000    20.388500000   0   0   0 # h
    680      1   2  0.100000    -8.910158675    13.491500000    19.741800000   1   0   0 # h
    681      1   2  0.100000   -10.355964338    13.866300000    16.773500000   1   0   0 # h
    682      1   2  0.100000   -10.707654338    14.729400000    14.548100000   1   0   0 # h
    683      1   2  0.100000    -5.363994338     1.877740000    16.084600000   1   0   0 # h
    684      1   2  0.100000    -4.708194338     1.299440000    18.290000000   1   0   0 # h
    685      1   1  0.000000    -8.859574338    10.891500000     5.024570000   1   0   0 # cp
    686      1   1 -0.100000    -9.379764338     9.839790000     5.733540000   1   0   0 # cp
    687      1   1 -0.100000   -10.704604338     9.783890000     6.018190000   1   0   0 # cp
    688      1   1  0.000000   -11.528024338    10.850500000     5.745720000   1   0   0 # cp
    689      1   1 -0.100000   -10.934304338    12.027100000     5.282320000   1   0   0 # cp
    690      1   1 -0.100000    -9.643654338    12.005700000     4.866310000   1   0   0 # cp
    691      1   2  0.100000    -8.786464338     8.999710000     6.039970000   1   0   0 # h
    692      1   2  0.100000   -11.115364338     8.880350000     6.473960000   1   0   0 # h
    693      1   2  0.100000   -11.510474338    12.904200000     5.085600000   1   0   0 # h
    694      1   2  0.100000    -9.261788675    12.879900000     4.316880000   1   0   0 # h
    695      1   1 -0.100000   -14.997114338    12.476600000     5.929000000   1   0   0 # cp
    696      1   1  0.000000   -13.951444338    11.927300000     5.201750000   1   0   0 # cp
    697      1   1 -0.100000   -13.827074338    12.289300000     3.872610000   1   0   0 # cp
    698      1   1 -0.100000   -14.890581307    12.780060592     3.199375750   1   0   0 # cp
    699      1   1  0.000000    17.007296662    13.150800000     3.877250000   0   0   0 # cp
    700      1   1 -0.100000    17.045233662    13.158300000     5.270450000   0   0   0 # cp
    701      1   3  0.000000   -13.097484338    10.670100000     5.832610000   1   0   0 # c
    702      1   1  0.000000   -13.370254338    10.208600000     7.386320000   1   0   0 # cp
    703      1   1 -0.100000    19.475745662     8.861120000     7.666320000   0   0   0 # cp
    704      1   1 -0.100000    18.983955662     8.424250000     8.875090000   0   0   0 # cp
    705      1   1  0.000000    18.702025662     9.311650000     9.891220000   0   0   0 # cp
    706      1   1 -0.100000   -13.894074338    10.605400000     9.709770000   1   0   0 # cp
    707      1   1 -0.100000   -13.454354338    11.088700000     8.473800000   1   0   0 # cp
    708      1   1 -0.100000    17.891295662     9.273900000     4.911520000   0   0   0 # cp
    709      1   1 -0.100000    17.218560662     8.640560000     3.896990000   0   0   0 # cp
    710      1   1  0.000000    17.938878693     8.190840592     2.793875750   0   0   0 # cp
    711      1   1 -0.100000    19.311068693     8.245610592     2.848375750   0   0   0 # cp
    712      1   1 -0.100000   -13.070744338     8.979180000     3.810630000   1   0   0 # cp
    713      1   1  0.000000   -13.773284338     9.538990000     4.854330000   1   0   0 # cp
    714      1   3  0.000000    17.086567693     7.594090592     1.597875750   0   0   0 # c
    715      1   1  0.000000    13.729128294     9.774889633    -0.087989138   0   0   1 # cp
    716      1   1 -0.100000    14.776108693    10.441940592     0.503775750   0   0   0 # cp
    717      1   1 -0.100000    15.727768693     9.759130592     1.186075750   0   0   0 # cp
    718      1   1  0.000000    15.729438693     8.364780592     1.204575750   0   0   0 # cp
    719      1   1 -0.100000    14.662318693     7.671390592     0.606475750   0   0   0 # cp
    720      1   1 -0.100000    13.646068693     8.403620592     0.001675750   0   0   0 # cp
    721      1   1  0.000000    16.822131493     6.156930592     2.233575750   0   0   0 # cp
    722      1   1 -0.100000    17.704020693     5.107770592     2.065175750   0   0   0 # cp
    723      1   1 -0.100000    17.445349693     3.875300592     2.589175750   0   0   0 # cp
    724      1   1  0.000000    16.377016693     3.704450592     3.420875750   0   0   0 # cp
    725      1   1 -0.100000    15.555543662     4.738350000     3.705350000   0   0   0 # cp
    726      1   1 -0.100000    15.776028693     5.951810592     3.104875750   0   0   0 # cp
    727      1   1 -0.100000    17.312989662     5.921960000    27.441400000   0   0   0 # cp
    728      1   1 -0.100000    17.917465662     5.995070000    26.210900000   0   0   0 # cp
    729      1   1  0.000000    18.683615662     7.056090000    25.841500000   0   0   0 # cp
    730      1   1 -0.100000    18.846285662     8.084530000    26.741800000   0   0   0 # cp
    731      1   1 -0.100000    18.596028294     8.786259633    -0.177989138   0   0   1 # cp
    732      1   1  0.000000    17.850128693     7.666480592     0.203775750   0   0   0 # cp
    733      1   2  0.100000   -15.173244338    12.210900000     6.963800000   1   0   0 # h
    734      1   2  0.100000   -13.001951307    11.903660592     3.266775750   1   0   0 # h
    735      1   2  0.100000   -14.856681307    12.807760592     2.109975750   1   0   0 # h
    736      1   2  0.100000    16.168750662    13.548300000     5.769270000   0   0   0 # h
    737      1   2  0.100000    19.647835662     8.124910000     6.893780000   0   0   0 # h
    738      1   2  0.100000    18.790745662     7.360050000     8.906980000   0   0   0 # h
    739      1   2  0.100000   -13.978984338    11.311600000    10.503400000   1   0   0 # h
    740      1   2  0.100000   -13.228124338    12.146300000     8.371500000   1   0   0 # h
    741      1   2  0.100000    17.305878662     9.709440000     5.672010000   0   0   0 # h
    742      1   2  0.100000    16.153109662     8.582860000     3.955710000   0   0   0 # h
    743      1   2  0.100000    19.870428693     7.777900592     2.082875750   0   0   0 # h
    744      1   2  0.100000   -12.019494338     9.103220000     3.721300000   1   0   0 # h
    745      1   2  0.100000    14.898808693    11.523160592     0.379275750   0   0   0 # h
    746      1   2  0.100000    16.526241693    10.305310592     1.664675750   0   0   0 # h
    747      1   2  0.100000    14.637378693     6.590280592     0.487375750   0   0   0 # h
    748      1   2  0.100000    12.856418294     7.867339633    -0.508989138   0   0   1 # h
    749      1   2  0.100000    18.577108693     5.235160592     1.487075750   0   0   0 # h
    750      1   2  0.100000    18.148688693     3.043550592     2.447175750   0   0   0 # h
    751      1   2  0.100000    14.775165662     4.670110000     4.452790000   0   0   0 # h
    752      1   2  0.100000    15.070568693     6.742030592     3.330375750   0   0   0 # h
    753      1   2  0.100000    16.990227294     5.877699633    -0.502389138   0   0   1 # h
    754      1   2  0.100000    17.684105662     5.189870000    25.486200000   0   0   0 # h
    755      1   2  0.100000   -13.619774338     8.968120000    26.517800000   1   0   0 # h
    756      1   2  0.100000    18.743888693     9.592870592     0.510975750   0   0   0 # h
    757      1   1  0.000000    -9.697264338     1.694580000    19.430400000   1   0   0 # cp
    758      1   1 -0.100000    -8.542254338     1.492690000    18.729700000   1   0   0 # cp
    759      1   1 -0.100000    -7.575934338     2.444490000    18.668100000   1   0   0 # cp
    760      1   1  0.000000    -7.779814338     3.715400000    19.191300000   1   0   0 # cp
    761      1   1 -0.100000    -9.020124338     3.962330000    19.788000000   1   0   0 # cp
    762      1   1 -0.100000    -9.916554338     2.943290000    19.999200000   1   0   0 # cp
    763      1   2  0.100000    -8.313448187     0.486158240    18.373300000   1   0   0 # h
    764      1   2  0.100000    -6.631574338     2.176240000    18.227600000   1   0   0 # h
    765      1   2  0.100000    -9.188524338     4.885930000    20.314900000   1   0   0 # h
    766      1   2  0.100000    22.213635662     3.137160000    20.577500000   0   0   0 # h
    767      1   1 -0.100000    -7.801134338     6.920050000    19.048500000   1   0   0 # cp
    768      1   1  0.000000    -6.886194338     6.216900000    19.818500000   1   0   0 # cp
    769      1   1 -0.100000    -6.154438675     6.915450000    20.776900000   1   0   0 # cp
    770      1   1 -0.100000    -6.287238675     8.268540000    20.897800000   1   0   0 # cp
    771      1   1  0.000000    -7.155468675     8.952610000    20.109900000   1   0   0 # cp
    772      1   1 -0.100000    -7.903054338     8.271930000    19.184300000   1   0   0 # cp
    773      1   3  0.000000    -6.527114338     4.688830000    19.417300000   1   0   0 # c
    774      1   1  0.000000    -5.572094338     4.952060000    18.150500000   1   0   0 # cp
    775      1   1 -0.100000    -4.375758675     5.613680000    18.285300000   1   0   0 # cp
    776      1   1 -0.100000    12.874955662     5.987430000    17.192700000   0   0   0 # cp
    777      1   1  0.000000    -3.971238675     5.574080000    15.938300000   1   0   0 # cp
    778      1   1 -0.100000    -5.119078675     4.845900000    15.778800000   1   0   0 # cp
    779      1   1 -0.100000    -5.964694338     4.634200000    16.856200000   1   0   0 # cp
    780      1   1 -0.100000    -6.319394338     3.908320000    21.907400000   1   0   0 # cp
    781      1   1 -0.100000    -5.510994338     3.752270000    22.994900000   1   0   0 # cp
    782      1   1  0.000000    -4.126098675     3.695480000    22.859900000   1   0   0 # cp
    783      1   1 -0.100000    -3.686518675     3.422310000    21.563200000   1   0   0 # cp
    784      1   1 -0.100000    -4.528868675     3.410690000    20.496300000   1   0   0 # cp
    785      1   1  0.000000    -5.801394338     3.925060000    20.635300000   1   0   0 # cp
    786      1   3  0.000000    -3.153668675     4.124730000    24.059500000   1   0   0 # c
    787      1   1  0.000000    13.044135662     8.436160000    25.004000000   0   0   0 # cp
    788      1   1 -0.100000    11.916345662     7.727750000    24.634600000   0   0   0 # cp
    789      1   1 -0.100000    -4.516848675     6.393620000    24.356800000   1   0   0 # cp
    790      1   1  0.000000    13.192465662     5.690140000    24.354400000   0   0   0 # cp
    791      1   1 -0.100000    14.318065662     6.451130000    24.675900000   0   0   0 # cp
    792      1   1 -0.100000    14.232265662     7.780200000    24.989600000   0   0   0 # cp
    793      1   1  0.000000    14.856065662     3.614960000    23.639100000   0   0   0 # cp
    794      1   1 -0.100000    15.278595662     2.329220000    23.952700000   0   0   0 # cp
    795      1   1 -0.100000    16.452639062     1.840590000    23.489900000   0   0   0 # cp
    796      1   1  0.000000    17.281581662     2.628880000    22.726400000   0   0   0 # cp
    797      1   1 -0.100000    16.925870662     3.923870000    22.467100000   0   0   0 # cp
    798      1   1 -0.100000    15.692544662     4.388220000    22.844400000   0   0   0 # cp
    799      1   1 -0.100000    13.980165662     3.738710000    26.531500000   0   0   0 # cp
    800      1   1 -0.100000    -2.342856043     3.949729633    -0.430289138   1   0   1 # cp
    801      1   1  0.000000    -3.498496043     3.252779633    -0.141489138   1   0   1 # cp
    802      1   1 -0.100000    -4.686894338     2.158890000    27.044500000   1   0   0 # cp
    803      1   1 -0.100000    -4.452794338     2.595920000    25.771900000   1   0   0 # cp
    804      1   1  0.000000    -3.428948675     3.501550000    25.497000000   1   0   0 # cp
    805      1   2  0.100000    -8.343124338     6.412610000    18.264900000   1   0   0 # h
    806      1   2  0.100000    -5.404628675     6.420610000    21.365500000   1   0   0 # h
    807      1   2  0.100000    -5.658408675     8.769010000    21.591700000   1   0   0 # h
    808      1   2  0.100000    -8.544064338     8.818790000    18.513500000   1   0   0 # h
    809      1   2  0.100000    -4.037558675     5.939980000    19.254400000   1   0   0 # h
    810      1   2  0.100000    13.740885662     6.580500000    17.386800000   0   0   0 # h
    811      1   2  0.100000    -5.385794338     4.394640000    14.850400000   1   0   0 # h
    812      1   2  0.100000    -6.912774338     4.160650000    16.661800000   1   0   0 # h
    813      1   2  0.100000    -7.363934338     4.153560000    22.046100000   1   0   0 # h
    814      1   2  0.100000    -6.001494338     3.937370000    23.950100000   1   0   0 # h
    815      1   2  0.100000    -2.657278675     3.275650000    21.312100000   1   0   0 # h
    816      1   2  0.100000    -4.090588675     3.234030000    19.523000000   1   0   0 # h
    817      1   2  0.100000    -5.569218675     8.183260000    24.622300000   1   0   0 # h
    818      1   2  0.100000    -5.484368675     5.932200000    24.305700000   1   0   0 # h
    819      1   2  0.100000    15.305125662     6.023690000    24.847500000   0   0   0 # h
    820      1   2  0.100000    15.143775662     8.225900000    25.353300000   0   0   0 # h
    821      1   2  0.100000    -1.862488675     1.667590000    24.534300000   1   0   0 # h
    822      1   2  0.100000    16.707913813     0.787858240    23.696400000   0   0   0 # h
    823      1   2  0.100000    17.528825662     4.579210000    21.871300000   0   0   0 # h
    824      1   2  0.100000    15.350985662     5.359340000    22.472800000   0   0   0 # h
    825      1   2  0.100000    14.819845662     4.386470000    26.384400000   0   0   0 # h
    826      1   2  0.100000    14.908718693     4.212100592     0.335275750   0   0   0 # h
    827      1   2  0.100000    -5.579594338     1.566420000    27.228800000   1   0   0 # h
    828      1   2  0.100000    -5.073194338     2.204120000    25.019100000   1   0   0 # h
    829      1   1  0.000000   -10.113401307    10.900160592     0.861775750   1   0   0 # cp
    830      1   1 -0.100000   -11.103311307    10.067530592     0.483475750   1   0   0 # cp
    831      1   1 -0.100000   -10.921771307     8.705200592     0.569575750   1   0   0 # cp
    832      1   1  0.000000    -9.694481307     8.167760592     0.996275750   1   0   0 # cp
    833      1   1 -0.100000    -8.664901307     9.057410592     1.237875750   1   0   0 # cp
    834      1   1 -0.100000    -8.876991307    10.405000592     1.148375750   1   0   0 # cp
    835      1   2  0.100000   -12.049251307    10.519290592     0.204775750   1   0   0 # h
    836      1   2  0.100000   -11.762551307     8.057260592     0.391475750   1   0   0 # h
    837      1   2  0.100000    -7.688971307     8.734780592     1.566475750   1   0   0 # h
    838      1   2  0.100000    -8.007085645    11.017260592     1.433075750   1   0   0 # h
    839      1   1 -0.100000    -7.004371307     6.292070592     0.659475750   1   0   0 # cp
    840      1   1  0.000000    -8.060811307     5.965730592     1.499275750   1   0   0 # cp
    841      1   1 -0.100000    -7.779941307     5.045590592     2.511375750   1   0   0 # cp
    842      1   1 -0.100000    -6.521101307     4.513930592     2.670875750   1   0   0 # cp
    843      1   1  0.000000    -5.499771307     4.887370592     1.861675750   1   0   0 # cp
    844      1   1 -0.100000    -5.748871307     5.762970592     0.818775750   1   0   0 # cp
    845      1   3  0.000000    -9.524851307     6.559500592     1.252975750   1   0   0 # c
    846      1   1  0.000000   -10.023601307     5.561920592     0.090475750   1   0   0 # cp
    847      1   1 -0.100000   -10.207061307     4.186700592     0.328075750   1   0   0 # cp
    848      1   1 -0.100000    22.180535662     2.559020000    27.469700000   0   0   0 # cp
    849      1   1  0.000000    22.061995662     3.069880000    26.201400000   0   0   0 # cp
    850      1   1 -0.100000   -10.813914338     4.401720000    25.961700000   1   0   0 # cp
    851      1   1 -0.100000   -10.467104338     5.247810000    26.982300000   1   0   0 # cp
    852      1   1 -0.100000    -9.938834338     6.997070000     3.722960000   1   0   0 # cp
    853      1   1 -0.100000   -10.332184338     6.499000000     4.941320000   1   0   0 # cp
    854      1   1  0.000000   -11.269344338     5.488350000     5.031790000   1   0   0 # cp
    855      1   1 -0.100000    21.124445662     5.137850000     3.840030000   0   0   0 # cp
    856      1   1 -0.100000   -11.536101307     5.673270592     2.641175750   1   0   0 # cp
    857      1   1  0.000000   -10.392701307     6.443840592     2.555875750   1   0   0 # cp
    858      1   3  0.000000    21.651125662     4.505490000     6.333350000   0   0   0 # c
    859      1   1  0.000000    -7.554584338     2.361710000     6.480140000   1   0   0 # cp
    860      1   1 -0.100000    -8.608854338     1.768790000     5.801000000   1   0   0 # cp
    861      1   1 -0.100000    -9.801234338     2.445230000     5.665260000   1   0   0 # cp
    862      1   1  0.000000    -9.979644338     3.672830000     6.275990000   1   0   0 # cp
    863      1   1 -0.100000    -8.876504338     4.305670000     6.820490000   1   0   0 # cp
    864      1   1 -0.100000    -7.663944338     3.663670000     6.871460000   1   0   0 # cp
    865      1   1  0.000000    20.230495662     3.859140000     6.300460000   0   0   0 # cp
    866      1   1 -0.100000    19.102925662     4.670800000     6.356660000   0   0   0 # cp
    867      1   1 -0.100000    17.841145662     4.166350000     6.249920000   0   0   0 # cp
    868      1   1  0.000000    17.671525662     2.846030000     6.019020000   0   0   0 # cp
    869      1   1 -0.100000    18.726425662     2.003320000     6.026440000   0   0   0 # cp
    870      1   1 -0.100000    19.995865662     2.489320000     6.228350000   0   0   0 # cp
    871      1   1 -0.100000    21.468075662     4.040600000     8.878010000   0   0   0 # cp
    872      1   1 -0.100000    21.608715662     4.314200000    10.206400000   0   0   0 # cp
    873      1   1  0.000000   -11.009074338     5.542960000    10.609400000   1   0   0 # cp
    874      1   1 -0.100000   -10.928674338     6.562710000     9.675970000   1   0   0 # cp
    875      1   1 -0.100000   -11.186044338     6.299730000     8.336740000   1   0   0 # cp
    876      1   1  0.000000    21.577575662     5.022220000     7.892980000   0   0   0 # cp
    877      1   2  0.100000    -7.169621706     6.937779633    -0.189289138   1   0   1 # h
    878      1   2  0.100000    -8.568821307     4.696940592     3.156575750   1   0   0 # h
    879      1   2  0.100000    -6.411361307     3.758930592     3.435975750   1   0   0 # h
    880      1   2  0.100000    -4.955605645     6.045140592     0.137675750   1   0   0 # h
    881      1   2  0.100000   -10.071431307     3.732830592     1.303475750   1   0   0 # h
    882      1   2  0.100000    22.248178294     2.286869633    -0.506189138   0   0   1 # h
    883      1   2  0.100000   -10.921244338     4.794460000    24.959400000   1   0   0 # h
    884      1   2  0.100000   -10.247604338     6.276180000    26.744200000   1   0   0 # h
    885      1   2  0.100000    -9.081954338     7.652800000     3.671080000   1   0   0 # h
    886      1   2  0.100000    -9.817494338     6.796400000     5.842090000   1   0   0 # h
    887      1   2  0.100000    20.349885662     4.400050000     3.811980000   0   0   0 # h
    888      1   2  0.100000    20.962258693     5.349020592     1.768875750   0   0   0 # h
    889      1   2  0.100000    -8.545120187     0.743958240     5.459750000   1   0   0 # h
    890      1   2  0.100000    22.430015662     1.969200000     5.106000000   0   0   0 # h
    891      1   2  0.100000    -8.918124338     5.278100000     7.279310000   1   0   0 # h
    892      1   2  0.100000    -6.848704338     4.129590000     7.372410000   1   0   0 # h
    893      1   2  0.100000    19.220205662     5.740120000     6.349980000   0   0   0 # h
    894      1   2  0.100000    17.001701662     4.830860000     6.221660000   0   0   0 # h
    895      1   2  0.100000    18.591773813     0.955258240     5.848840000   0   0   0 # h
    896      1   2  0.100000    20.807805662     1.788900000     6.238390000   0   0   0 # h
    897      1   2  0.100000    21.349485662     2.996960000     8.580670000   0   0   0 # h
    898      1   2  0.100000    21.543785662     3.476560000    10.903500000   0   0   0 # h
    899      1   2  0.100000   -10.551004338     7.537460000     9.960180000   1   0   0 # h
    900      1   2  0.100000   -10.984574338     7.084620000     7.638240000   1   0   0 # h
    901      1   1  0.000000    14.913685662     8.078330000    14.849000000   0   0   0 # cp
    902      1   1 -0.100000    13.800515662     8.883310000    15.063800000   0   0   0 # cp
    903      1   1 -0.100000    13.859835662    10.240800000    14.845500000   0   0   0 # cp
    904      1   1  0.000000    15.020535662    10.839900000    14.426900000   0   0   0 # cp
    905      1   1 -0.100000    16.147228662    10.022700000    14.242900000   0   0   0 # cp
    906      1   1 -0.100000    16.113136662     8.658050000    14.483800000   0   0   0 # cp
    907      1   2  0.100000    12.857495662     8.417890000    15.292800000   0   0   0 # h
    908      1   2  0.100000    12.970335662    10.846000000    14.999500000   0   0   0 # h
    909      1   2  0.100000    17.084885662    10.413900000    13.891200000   0   0   0 # h
    910      1   2  0.100000    16.949228662     8.041500000    14.227600000   0   0   0 # h
    911      1   1 -0.100000   -15.477534338    12.914400000    14.417000000   1   0   0 # cp
    912      1   1  0.000000    16.349300662    13.192900000    13.772200000   0   0   0 # cp
    913      1   1 -0.100000    16.373399662    14.248500000    12.844600000   0   0   0 # cp
    914      1   1 -0.100000   -15.491354338    14.882800000    12.512900000   1   0   0 # cp
    915      1   1  0.000000   -14.311964338    14.566800000    13.149100000   1   0   0 # cp
    916      1   1 -0.100000   -14.312244338    13.591500000    14.111600000   1   0   0 # cp
    917      1   3  0.000000    14.968615662    12.434500000    14.130300000   0   0   0 # c
    918      1   1  0.000000    14.429295662    13.338700000    15.367700000   0   0   0 # cp
    919      1   1 -0.100000    14.130815662    14.691900000    15.213700000   0   0   0 # cp
    920      1   1 -0.100000    22.076283813    -0.002441760    16.271400000   0   0   0 # cp
    921      1   1  0.000000    13.522705662    14.878000000    17.511300000   0   0   0 # cp
    922      1   1 -0.100000    13.922955662    13.597900000    17.688000000   0   0   0 # cp
    923      1   1 -0.100000    14.408445662    12.859000000    16.659800000   0   0   0 # cp
    924      1   1 -0.100000    14.532615662    11.815500000    11.697200000   0   0   0 # cp
    925      1   1 -0.100000    14.098875662    12.176400000    10.439600000   0   0   0 # cp
    926      1   1  0.000000    13.118555662    13.122700000    10.265600000   0   0   0 # cp
    927      1   1 -0.100000    12.473675662    13.542400000    11.441500000   0   0   0 # cp
    928      1   1 -0.100000    12.877435662    13.121900000    12.685900000   0   0   0 # cp
    929      1   1  0.000000    14.031245662    12.404300000    12.840300000   0   0   0 # cp
    930      1   3  0.000000    13.024025662    13.919900000     8.878420000   0   0   0 # c
    931      1   1  0.000000    -7.772925187     0.577858240     8.939480000   1   0   0 # cp
    932      1   1 -0.100000   -16.291063338    14.770600000     8.473420000   1   0   0 # cp
    933      1   1 -0.100000    15.508975662    14.203900000     8.436480000   0   0   0 # cp
    934      1   1  0.000000    14.376035662    14.815400000     8.937720000   0   0   0 # cp
    935      1   1 -0.100000    22.960673813     0.545258240     9.564440000   0   0   0 # cp
    936      1   1 -0.100000    -8.855917187     1.208258240     9.544090000   1   0   0 # cp
    937      1   1  0.000000    11.548155662    14.509700000     8.878330000   0   0   0 # cp
    938      1   1 -0.100000    10.475445662    13.606900000     8.903300000   0   0   0 # cp
    939      1   1 -0.100000     9.211155662    14.080800000     9.018800000   0   0   0 # cp
    940      1   1  0.000000    17.348013813    -0.044341760     9.062840000   0   0   0 # cp
    941      1   1 -0.100000    18.387713813     0.832558240     9.011470000   0   0   0 # cp
    942      1   1 -0.100000    19.689623813     0.380158240     8.946270000   0   0   0 # cp
    943      1   1 -0.100000    12.749355662    14.108900000     6.338470000   0   0   0 # cp
    944      1   1 -0.100000    13.138315662    13.789100000     5.075390000   0   0   0 # cp
    945      1   1  0.000000    13.748275662    12.604600000     4.794100000   0   0   0 # cp
    946      1   1 -0.100000    13.906895662    11.696900000     5.806770000   0   0   0 # cp
    947      1   1 -0.100000    13.545685662    12.012700000     7.087480000   0   0   0 # cp
    948      1   1  0.000000    13.051635662    13.264200000     7.392370000   0   0   0 # cp
    949      1   2  0.100000   -15.483944338    12.193700000    15.223600000   1   0   0 # h
    950      1   2  0.100000    15.495155662    14.554400000    12.330700000   0   0   0 # h
    951      1   2  0.100000    -7.127856187     0.161658240    11.743700000   1   0   0 # h
    952      1   2  0.100000   -13.442654338    13.308500000    14.649300000   1   0   0 # h
    953      1   2  0.100000    22.574353813    -0.333841760    14.239200000   0   0   0 # h
    954      1   2  0.100000    21.782193813     1.040858240    16.087100000   0   0   0 # h
    955      1   2  0.100000    13.844635662    13.183800000    18.676700000   0   0   0 # h
    956      1   2  0.100000    14.758505662    11.852700000    16.867900000   0   0   0 # h
    957      1   2  0.100000    15.426075662    11.203400000    11.745500000   0   0   0 # h
    958      1   2  0.100000    14.638485662    11.717900000     9.632190000   0   0   0 # h
    959      1   2  0.100000    11.665615662    14.283700000    11.392700000   0   0   0 # h
    960      1   2  0.100000    12.388095662    13.493900000    13.585000000   0   0   0 # h
    961      1   2  0.100000   -15.470264338    14.278900000     7.957440000   1   0   0 # h
    962      1   2  0.100000    15.513005662    13.215500000     8.055840000   0   0   0 # h
    963      1   2  0.100000    22.155423813     0.997858240    10.091300000   0   0   0 # h
    964      1   2  0.100000    -8.781434338     2.224500000     9.948800000   1   0   0 # h
    965      1   2  0.100000    10.624445662    12.545400000     8.881560000   0   0   0 # h
    966      1   2  0.100000    -8.149218675    13.417700000     9.048820000   1   0   0 # h
    967      1   2  0.100000    18.121435662     1.869120000     9.138250000   0   0   0 # h
    968      1   2  0.100000    20.443103813     1.102758240     8.918150000   0   0   0 # h
    969      1   2  0.100000    12.316685662    15.096400000     6.418860000   0   0   0 # h
    970      1   2  0.100000    13.073205662    14.559600000     4.331930000   0   0   0 # h
    971      1   2  0.100000    14.384405662    10.724200000     5.653310000   0   0   0 # h
    972      1   2  0.100000    13.790565662    11.265100000     7.844010000   0   0   0 # h
    973      1   4 -0.200000    -6.358394338     1.572250000     6.967090000   1   0   0 # c2
    974      1   4 -0.200000    -6.489826187     1.298758240     8.517400000   1   0   0 # c2
    975      1   2  0.100000    -6.299366187     0.650158240     6.362080000   1   0   0 # h
    976      1   2  0.100000    -5.400194338     2.116060000     6.766470000   1   0   0 # h
    977      1   2  0.100000    -6.426894338     2.279710000     9.054820000   1   0   0 # h
    978      1   2  0.100000    -5.605296187     0.692058240     8.849900000   1   0   0 # h
    979      1   4 -0.200000    21.353463813     0.187158240    18.693000000   0   0   0 # c2
    980      1   4 -0.200000    22.372333813     0.574158240    19.814400000   0   0   0 # c2
    981      1   2  0.100000    20.548663813    -0.435141760    19.132900000   0   0   0 # h
    982      1   2  0.100000    20.851393813     1.119958240    18.331400000   0   0   0 # h
    983      1   2  0.100000    22.937893813    -0.327741760    20.152800000   0   0   0 # h
    984      1   2  0.100000    21.771013813     0.918558240    20.695900000   0   0   0 # h
    985      1   4 -0.200000    13.507075662     5.792560000    14.761800000   0   0   0 # c2
    986      1   4 -0.200000    14.853745662     6.543180000    14.959900000   0   0   0 # c2
    987      1   2  0.100000    13.720415662     4.765900000    14.376500000   0   0   0 # h
    988      1   2  0.100000    12.976005662     6.250170000    13.925200000   0   0   0 # h
    989      1   2  0.100000    15.390775662     6.253550000    15.888100000   0   0   0 # h
    990      1   2  0.100000    15.471025662     6.145570000    14.154900000   0   0   0 # h
    991      1   4 -0.200000    -3.774885645     2.994760592     1.328275750   1   0   0 # c2
    992      1   4 -0.200000    -4.098275645     4.265530592     2.149975750   1   0   0 # c2
    993      1   2  0.100000    -4.595471307     2.223430592     1.459175750   1   0   0 # h
    994      1   2  0.100000    -2.825475645     2.533660592     1.726275750   1   0   0 # h
    995      1   2  0.100000    -3.337805645     5.025970592     2.059075750   1   0   0 # h
    996      1   2  0.100000    -4.039055645     3.962620592     3.206775750   1   0   0 # h
    997      1   4 -0.200000    16.287849662     2.341810000     5.656120000   0   0   0 # c2
    998      1   4 -0.200000    16.054116662     2.363260000     4.104800000   0   0   0 # c2
    999      1   2  0.100000    16.145733813     1.360558240     6.091710000   0   0   0 # h
   1000      1   2  0.100000    15.539571662     3.025510000     6.118690000   0   0   0 # h
   1001      1   2  0.100000    -1.520628675     2.097370000     3.852840000   1   0   0 # h
   1002      1   2  0.100000    16.663516844     1.569018832     3.647475750   0   0   0 # h
   1003      1   4 -0.200000    14.498328693    12.433860592     3.457875750   0   0   0 # c2
   1004      1   4 -0.200000    15.657508693    13.400160592     3.143075750   0   0   0 # c2
   1005      1   2  0.100000    13.753018693    12.506060592     2.613975750   0   0   0 # h
   1006      1   2  0.100000    14.840818693    11.373760592     3.381275750   0   0   0 # h
   1007      1   2  0.100000    15.372018693    14.448360592     3.356075750   0   0   0 # h
   1008      1   2  0.100000    15.814858693    13.383560592     2.043875750   0   0   0 # h
   1009      1   4 -0.200000    12.450655662     9.725480000    27.133800000   0   0   0 # c2
   1010      1   4 -0.200000    12.958195662     9.809180000    25.685500000   0   0   0 # c2
   1011      1   2  0.100000    11.492115662     9.208130000    27.205600000   0   0   0 # h
   1012      1   2  0.100000    12.227045662    10.753100000    27.527700000   0   0   0 # h
   1013      1   2  0.100000    12.150575662    10.330300000    25.093100000   0   0   0 # h
   1014      1   2  0.100000    13.887685662    10.426100000    25.562600000   0   0   0 # h
   1015      1   4 -0.200000    21.541525662     2.218130000    25.053400000   0   0   0 # c2
   1016      1   4 -0.200000    22.526075662     1.997540000    23.901000000   0   0   0 # c2
   1017      1   2  0.100000    21.152555662     1.265120000    25.453200000   0   0   0 # h
   1018      1   2  0.100000    20.633785662     2.702420000    24.657900000   0   0   0 # h
   1019      1   2  0.100000    21.924205662     1.719890000    23.031000000   0   0   0 # h
   1020      1   2  0.100000   -10.040984338     2.946510000    23.605700000   1   0   0 # h
   1021      1   4 -0.200000   -10.074871706    13.346159633    -0.087089138   1   0   1 # c2
   1022      1   4 -0.200000   -10.426181307    12.378160592     1.068775750   1   0   0 # c2
   1023      1   2  0.100000    -9.478318675    12.221200000    27.576200000   1   0   0 # h
   1024      1   2  0.100000    -9.808265645    14.298360592     0.387275750   1   0   0 # h
   1025      1   2  0.100000    -9.826041307    12.722260592     1.954075750   1   0   0 # h
   1026      1   2  0.100000   -11.478401307    12.488460592     1.380375750   1   0   0 # h
   1027      1   4 -0.200000    18.540975662     1.696520000    20.629800000   0   0   0 # c2
   1028      1   4 -0.200000    18.551655662     1.961340000    22.154900000   0   0   0 # c2
   1029      1   2  0.100000    18.664165662     2.686060000    20.149800000   0   0   0 # h
   1030      1   2  0.100000    19.444973813     1.120658240    20.352400000   0   0   0 # h
   1031      1   2  0.100000    19.407705662     2.650490000    22.339400000   0   0   0 # h
   1032      1   2  0.100000    18.850663813     1.029258240    22.688500000   0   0   0 # h
   1033      1   4 -0.200000    19.104305662     7.224610000    24.387400000   0   0   0 # c2
   1034      1   4 -0.200000    18.009855662     7.822290000    23.436600000   0   0   0 # c2
   1035      1   2  0.100000   -13.008614338     7.853430000    24.372800000   1   0   0 # h
   1036      1   2  0.100000    19.422115662     6.249300000    23.976900000   0   0   0 # h
   1037      1   2  0.100000    18.217965662     7.469590000    22.424500000   0   0   0 # h
   1038      1   2  0.100000    17.024442662     7.421700000    23.736500000   0   0   0 # h
   1039      1   4 -0.200000    -4.287446187     1.037258240    13.694800000   1   0   0 # c2
   1040      1   4 -0.200000    -4.637836187    -0.162841760    12.773500000   1   0   0 # c2
   1041      1   2  0.100000    -5.120094338     1.760700000    13.709500000   1   0   0 # h
   1042      1   2  0.100000    -3.427468675     1.589990000    13.285500000   1   0   0 # h
   1043      1   2  0.100000    -4.704026187     0.164058240    11.739500000   1   0   0 # h
   1044      1   2  0.100000   -12.217034338    14.608400000    12.810500000   1   0   0 # h
   1045      1   4 -0.200000    18.125065662     8.865350000    11.246500000   0   0   0 # c2
   1046      1   4 -0.200000    17.271361662     7.540680000    11.287900000   0   0   0 # c2
   1047      1   2  0.100000    18.985625662     8.727680000    11.919600000   0   0   0 # h
   1048      1   2  0.100000    17.591895662     9.726120000    11.683200000   0   0   0 # h
   1049      1   2  0.100000    17.753275662     6.771410000    10.668800000   0   0   0 # h
   1050      1   2  0.100000    17.312772662     7.085800000    12.293700000   0   0   0 # h
   1051      1   4 -0.200000    -6.520338675     9.789150000     4.616770000   1   0   0 # c2
   1052      1   4 -0.200000    -7.420668675    11.039900000     4.562510000   1   0   0 # c2
   1053      1   2  0.100000    -5.648098675     9.953750000     3.971270000   1   0   0 # h
   1054      1   2  0.100000    -7.060938675     8.971820000     4.078610000   1   0   0 # h
   1055      1   2  0.100000    -7.398325645    11.457460592     3.541375750   1   0   0 # h
   1056      1   2  0.100000    -6.956148675    11.878600000     5.122850000   1   0   0 # h
   1057      1   4 -0.200000    -1.012090524     0.553058240    10.782900000   1   0   0 # c2
   1058      1   4 -0.200000    -0.632520524     0.388058240     9.280430000   1   0   0 # c2
   1059      1   2  0.100000    -2.039570524     0.881258240    10.839200000   1   0   0 # h
   1060      1   2  0.100000    16.090179662     1.402900000    11.185600000   0   0   0 # h
   1061      1   2  0.100000    15.772053813     1.337458240     8.758490000   0   0   0 # h
   1062      1   2  0.100000    -9.784258675    15.190300000     8.760980000   1   0   0 # h
   1063      1   4 -0.200000   -10.427914338     5.644480000    12.039300000   1   0   0 # c2
   1064      1   4 -0.200000    -9.238054338     4.681040000    12.329400000   1   0   0 # c2
   1065      1   2  0.100000   -10.088934338     6.661280000    12.278200000   1   0   0 # h
   1066      1   2  0.100000   -11.239164338     5.444810000    12.740300000   1   0   0 # h
   1067      1   2  0.100000    -9.431834338     3.656000000    11.962500000   1   0   0 # h
   1068      1   2  0.100000    -9.154034338     4.597070000    13.418600000   1   0   0 # h
   1069      1   4 -0.200000    10.433365662    11.219100000    19.442000000   0   0   0 # c2
   1070      1   4 -0.200000    -7.230248675    10.497400000    20.155900000   1   0   0 # c2
   1071      1   2  0.100000    11.399105662    10.697200000    19.637000000   0   0   0 # h
   1072      1   2  0.100000    10.536935662    12.230700000    19.873800000   0   0   0 # h
   1073      1   2  0.100000    -8.203378675    10.897700000    19.782200000   1   0   0 # h
   1074      1   2  0.100000    -7.177208675    10.849900000    21.211300000   1   0   0 # h
   1075      1   4 -0.200000   -12.107264338     8.340940000    17.087700000   1   0   0 # c2
   1076      1   4 -0.200000   -11.912614338     8.787800000    18.588600000   1   0   0 # c2
   1077      1   2  0.100000   -11.970334338     7.238300000    17.073200000   1   0   0 # h
   1078      1   2  0.100000   -13.143974338     8.521270000    16.777800000   1   0   0 # h
   1079      1   2  0.100000   -10.922604338     8.433020000    18.866200000   1   0   0 # h
   1080      1   2  0.100000   -12.592254338     8.187660000    19.208800000   1   0   0 # h
   1081      1   1  0.000000    -9.133881151    23.088821760    10.893000000   0   0   0 # cp
   1082      1   1 -0.100000    -9.698418151    24.214211760    10.374600000   0   0   0 # cp
   1083      1   1 -0.100000   -11.015308151    24.243101760    10.072300000   0   0   0 # cp
   1084      1   1  0.000000   -11.848038151    23.120461760    10.261800000   0   0   0 # cp
   1085      1   1 -0.100000   -11.198508151    21.946441760    10.663400000   0   0   0 # cp
   1086      1   1 -0.100000    -9.873618151    21.928201760    11.013400000   0   0   0 # cp
   1087      1   2  0.100000    -9.072568151    25.067371760    10.166500000   0   0   0 # h
   1088      1   2  0.100000   -11.439148151    25.151461760     9.667740000   0   0   0 # h
   1089      1   2  0.100000     4.760157512    21.036351760    10.773100000   0   0   0 # h
   1090      1   2  0.100000    -9.445298151    20.983491760    11.312400000   0   0   0 # h
   1091      1   1 -0.100000     1.339121849    21.282371760     9.759450000   0   0   0 # cp
   1092      1   1  0.000000     2.269447512    21.957321760    10.532900000   0   0   0 # cp
   1093      1   1 -0.100000     2.241257512    21.714441760    11.921200000   0   0   0 # cp
   1094      1   1 -0.100000     1.159871849    21.125671760    12.518200000   0   0   0 # cp
   1095      1   1  0.000000     0.187411849    20.600871760    11.727700000   0   0   0 # cp
   1096      1   1 -0.100000     0.349181849    20.538541760    10.371300000   0   0   0 # cp
   1097      1   3  0.000000     3.078887512    23.228831760     9.984330000   0   0   0 # c
   1098      1   1  0.000000     2.873877512    23.747631760     8.464380000   0   0   0 # cp
   1099      1   1 -0.100000   -13.719068151    25.121241760     8.219720000   0   0   0 # cp
   1100      1   1 -0.100000     2.311697512    25.584541760     7.033250000   0   0   0 # cp
   1101      1   1  0.000000     2.067847512    24.725061760     5.979300000   0   0   0 # cp
   1102      1   1 -0.100000     2.408817512    23.383821760     6.145280000   0   0   0 # cp
   1103      1   1 -0.100000     2.786327512    22.887341760     7.363610000   0   0   0 # cp
   1104      1   1 -0.100000     0.976807512    24.519111760    10.778300000   0   0   0 # cp
   1105      1   1 -0.100000     0.283567512    25.170191760    11.758500000   0   0   0 # cp
   1106      1   1  0.000000     0.923187512    25.856941760    12.768600000   0   0   0 # cp
   1107      1   1 -0.100000   -14.202738151    25.865241760    12.753400000   0   0   0 # cp
   1108      1   1 -0.100000   -13.512248151    24.991651760    11.939100000   0   0   0 # cp
   1109      1   1  0.000000     2.348097512    24.331231760    10.912900000   0   0   0 # cp
   1110      1   3  0.000000     0.105697512    26.604741760    13.909100000   0   0   0 # c
   1111      1   1  0.000000    -3.022728151    24.453801760    16.047100000   0   0   0 # cp
   1112      1   1 -0.100000    -1.886728151    23.796761760    15.662100000   0   0   0 # cp
   1113      1   1 -0.100000    -0.975658151    24.402391760    14.837400000   0   0   0 # cp
   1114      1   1  0.000000    -1.118778151    25.723341760    14.459600000   0   0   0 # cp
   1115      1   1 -0.100000    -2.313028151    26.368341760    14.826000000   0   0   0 # cp
   1116      1   1 -0.100000    -3.311448151    25.680041760    15.479700000   0   0   0 # cp
   1117      1   1  0.000000    -0.332542488    27.919041760    13.083200000   0   0   0 # cp
   1118      1   1 -0.100000   -16.127618151    29.090141760    13.199600000   0   0   0 # cp
   1119      1   1 -0.100000   -16.462518151    30.236341760    12.517400000   0   0   0 # cp
   1120      1   1  0.000000    -1.052842488    30.260841760    11.702000000   0   0   0 # cp
   1121      1   1 -0.100000    -1.801932488    29.111341760    11.559200000   0   0   0 # cp
   1122      1   1 -0.100000    -1.448728151    27.947941760    12.246700000   0   0   0 # cp
   1123      1   1 -0.100000     0.500637512    27.810241760    16.163900000   0   0   0 # cp
   1124      1   1 -0.100000   -15.536738151    27.873741760    17.447000000   0   0   0 # cp
   1125      1   1  0.000000   -14.779658151    26.830941760    17.942100000   0   0   0 # cp
   1126      1   1 -0.100000   -14.294138151    25.871841760    17.094500000   0   0   0 # cp
   1127      1   1 -0.100000     1.763717512    25.830541760    15.820800000   0   0   0 # cp
   1128      1   1  0.000000     0.861787512    26.772641760    15.312000000   0   0   0 # cp
   1129      1   2  0.100000     1.243891849    21.412811760     8.678820000   0   0   0 # h
   1130      1   2  0.100000     2.931377512    22.259401760    12.555500000   0   0   0 # h
   1131      1   2  0.100000     1.084721849    21.135151760    13.584000000   0   0   0 # h
   1132      1   2  0.100000    -0.374668151    20.055221760     9.750000000   0   0   0 # h
   1133      1   2  0.100000   -13.454438151    25.853341760     8.958890000   0   0   0 # h
   1134      1   2  0.100000   -14.333568151    26.656841760     6.900300000   0   0   0 # h
   1135      1   2  0.100000     2.333827512    22.660621760     5.348480000   0   0   0 # h
   1136      1   2  0.100000     2.959237512    21.821141760     7.464340000   0   0   0 # h
   1137      1   2  0.100000     0.444011849    24.088061760     9.959280000   0   0   0 # h
   1138      1   2  0.100000    -0.777848151    25.191821760    11.674500000   0   0   0 # h
   1139      1   2  0.100000   -13.639058151    26.490241760    13.454900000   0   0   0 # h
   1140      1   2  0.100000   -12.414328151    24.924381760    12.069700000   0   0   0 # h
   1141      1   2  0.100000    -1.683148151    22.795831760    15.993700000   0   0   0 # h
   1142      1   2  0.100000    -0.105798151    23.854621760    14.511600000   0   0   0 # h
   1143      1   2  0.100000    -2.450748151    27.430941760    14.656200000   0   0   0 # h
   1144      1   2  0.100000    -4.267998151    26.150541760    15.715400000   0   0   0 # h
   1145      1   2  0.100000   -15.229238151    29.018641760    13.802100000   0   0   0 # h
   1146      1   2  0.100000    -7.434660000    15.631800000    12.559600000   0   0   0 # h
   1147      1   2  0.100000    -2.609148151    29.069841760    10.820600000   0   0   0 # h
   1148      1   2  0.100000    -2.085248151    27.097741760    12.140400000   0   0   0 # h
   1149      1   2  0.100000    -0.193652488    28.566041760    15.833500000   0   0   0 # h
   1150      1   2  0.100000   -15.836668151    28.704641760    18.108100000   0   0   0 # h
   1151      1   2  0.100000   -13.687258151    25.057431760    17.507100000   0   0   0 # h
   1152      1   2  0.100000     2.033707512    25.000621760    15.223900000   0   0   0 # h
   1153      1   1  0.000000    -1.302550000    16.391800000    24.123500000   0   0   0 # cp
   1154      1   1 -0.100000    -0.082168151    16.721131760    24.617000000   0   0   0 # cp
   1155      1   1 -0.100000     0.929235000    15.773900000    24.659700000   0   0   0 # cp
   1156      1   1  0.000000    -7.657429151    29.995641760    24.109600000   0   0   0 # cp
   1157      1   1 -0.100000    -8.896510151    29.703441760    23.583600000   0   0   0 # cp
   1158      1   1 -0.100000    -1.510340000    15.125500000    23.637900000   0   0   0 # cp
   1159      1   2  0.100000     0.076801849    17.738391760    24.909900000   0   0   0 # h
   1160      1   2  0.100000     1.935690000    16.046500000    24.936100000   0   0   0 # h
   1161      1   2  0.100000    -9.067850151    28.757141760    23.097800000   0   0   0 # h
   1162      1   2  0.100000    -2.462650000    14.857300000    23.230100000   0   0   0 # h
   1163      1   1 -0.100000    -7.464251151    26.887141760    24.484800000   0   0   0 # cp
   1164      1   1  0.000000    -6.670478151    27.577941760    23.606700000   0   0   0 # cp
   1165      1   1 -0.100000    -5.972368151    26.815741760    22.671200000   0   0   0 # cp
   1166      1   1 -0.100000    -6.123878151    25.466321760    22.583600000   0   0   0 # cp
   1167      1   1  0.000000    -6.955868151    24.805041760    23.456700000   0   0   0 # cp
   1168      1   1 -0.100000    -7.612130151    25.529441760    24.424500000   0   0   0 # cp
   1169      1   3  0.000000    -6.343048151    29.107241760    23.887800000   0   0   0 # c
   1170      1   1  0.000000    -5.256878151    28.921241760    25.053000000   0   0   0 # cp
   1171      1   1 -0.100000    -4.029168151    28.339541760    24.771000000   0   0   0 # cp
   1172      1   1 -0.100000    -3.122568151    28.042341760    25.730300000   0   0   0 # cp
   1173      1   1  0.000000    -3.388118151    28.344841760    27.058400000   0   0   0 # cp
   1174      1   1 -0.100000    -4.558828151    29.007141760    27.344500000   0   0   0 # cp
   1175      1   1 -0.100000    -5.489388151    29.262441760    26.358200000   0   0   0 # cp
   1176      1   1 -0.100000    -6.330238151    29.803741760    21.409100000   0   0   0 # cp
   1177      1   1 -0.100000    11.126263442    -0.724769919    20.281300000   0   1   0 # cp
   1178      1   1  0.000000     4.051290000    15.091200000    20.328000000   0   0   0 # cp
   1179      1   1 -0.100000     4.568540000    15.381300000    21.578500000   0   0   0 # cp
   1180      1   1 -0.100000     3.869890000    15.105400000    22.727000000   0   0   0 # cp
   1181      1   1  0.000000    -5.707968151    29.868341760    22.638600000   0   0   0 # cp
   1182      1   3  0.000000    13.445223442    -0.807269919    19.152100000   0   1   0 # c
   1183      1   1  0.000000    -3.891438151    25.747241760    18.962900000   0   0   0 # cp
   1184      1   1 -0.100000    -4.733698151    26.594241760    18.261400000   0   0   0 # cp
   1185      1   1 -0.100000    -4.522568151    27.954541760    18.342900000   0   0   0 # cp
   1186      1   1  0.000000    -3.554358151    28.535141760    19.161800000   0   0   0 # cp
   1187      1   1 -0.100000    -2.916978151    27.643641760    20.009300000   0   0   0 # cp
   1188      1   1 -0.100000    -3.041278151    26.276241760    19.892800000   0   0   0 # cp
   1189      1   1  0.000000     6.495205662    15.290100000    19.406300000   0   0   0 # cp
   1190      1   1 -0.100000     6.649697512    16.683251760    19.299900000   0   0   0 # cp
   1191      1   1 -0.100000    -8.683786151    17.270901760    19.651400000   0   0   0 # cp
   1192      1   1  0.000000    -7.619370000    16.508300000    20.059300000   0   0   0 # cp
   1193      1   1 -0.100000    -7.754270000    15.146800000    20.070700000   0   0   0 # cp
   1194      1   1 -0.100000    -0.799522488    30.035341760    19.759600000   0   0   0 # cp
   1195      1   1 -0.100000    -3.002548151    30.124341760    16.608300000   0   0   0 # cp
   1196      1   1 -0.100000     5.192920000    15.151600000    15.351200000   0   0   0 # cp
   1197      1   1  0.000000     4.185910000    16.070400000    15.108900000   0   0   0 # cp
   1198      1   1 -0.100000     3.527170000    16.611600000    16.189600000   0   0   0 # cp
   1199      1   1 -0.100000     3.875830000    16.253200000    17.475600000   0   0   0 # cp
   1200      1   1  0.000000     4.728510000    15.183200000    17.682200000   0   0   0 # cp
   1201      1   2  0.100000    -7.936724151    27.476241760    25.251700000   0   0   0 # h
   1202      1   2  0.100000    -5.219728151    27.254341760    22.044700000   0   0   0 # h
   1203      1   2  0.100000    -5.496158151    24.883801760    21.925800000   0   0   0 # h
   1204      1   2  0.100000    -8.209245151    25.135941760    25.223600000   0   0   0 # h
   1205      1   2  0.100000    -3.796958151    28.039441760    23.793700000   0   0   0 # h
   1206      1   2  0.100000    -2.198438151    27.501241760    25.494400000   0   0   0 # h
   1207      1   2  0.100000    -4.408215120    30.146502352     0.158275750   0   0   0 # h
   1208      1   2  0.100000    -6.419238151    29.745541760    26.632900000   0   0   0 # h
   1209      1   2  0.100000    -7.301308151    29.326441760    21.273700000   0   0   0 # h
   1210      1   2  0.100000    -6.147118151    29.980641760    19.313500000   0   0   0 # h
   1211      1   2  0.100000     5.590205662    15.662500000    21.758500000   0   0   0 # h
   1212      1   2  0.100000     4.336790000    15.353700000    23.692700000   0   0   0 # h
   1213      1   2  0.100000    -5.457668151    26.228941760    17.569200000   0   0   0 # h
   1214      1   2  0.100000    -5.180028151    28.538241760    17.743200000   0   0   0 # h
   1215      1   2  0.100000    -2.272248151    28.004041760    20.804600000   0   0   0 # h
   1216      1   2  0.100000    -2.378578151    25.657341760    20.462500000   0   0   0 # h
   1217      1   2  0.100000     5.839827512    17.349881760    19.081700000   0   0   0 # h
   1218      1   2  0.100000    -8.608567151    18.349921760    19.750300000   0   0   0 # h
   1219      1   2  0.100000   -15.330248151    30.025241760    20.388500000   0   0   0 # h
   1220      1   2  0.100000    -0.799882488    28.966941760    19.741800000   0   0   0 # h
   1221      1   2  0.100000    -2.245688151    29.341741760    16.773500000   0   0   0 # h
   1222      1   2  0.100000    -2.597378151    30.204841760    14.548100000   0   0   0 # h
   1223      1   2  0.100000     2.746281849    17.353181760    16.084600000   0   0   0 # h
   1224      1   2  0.100000     3.402081849    16.774881760    18.290000000   0   0   0 # h
   1225      1   1  0.000000    -0.749298151    26.366941760     5.024570000   0   0   0 # cp
   1226      1   1 -0.100000    -1.269488151    25.315231760     5.733540000   0   0   0 # cp
   1227      1   1 -0.100000    -2.594328151    25.259331760     6.018190000   0   0   0 # cp
   1228      1   1  0.000000    -3.417748151    26.325941760     5.745720000   0   0   0 # cp
   1229      1   1 -0.100000    -2.824028151    27.502541760     5.282320000   0   0   0 # cp
   1230      1   1 -0.100000    -1.533378151    27.481141760     4.866310000   0   0   0 # cp
   1231      1   2  0.100000    -0.676188151    24.475151760     6.039970000   0   0   0 # h
   1232      1   2  0.100000    -3.005088151    24.355791760     6.473960000   0   0   0 # h
   1233      1   2  0.100000    -3.400198151    28.379641760     5.085600000   0   0   0 # h
   1234      1   2  0.100000    -1.151512488    28.355341760     4.316880000   0   0   0 # h
   1235      1   1 -0.100000    -6.886838151    27.952041760     5.929000000   0   0   0 # cp
   1236      1   1  0.000000    -5.841168151    27.402741760     5.201750000   0   0   0 # cp
   1237      1   1 -0.100000    -5.716798151    27.764741760     3.872610000   0   0   0 # cp
   1238      1   1 -0.100000    -6.780305120    28.255502352     3.199375750   0   0   0 # cp
   1239      1   1  0.000000    -7.911027151    28.626241760     3.877250000   0   0   0 # cp
   1240      1   1 -0.100000    -7.873090151    28.633741760     5.270450000   0   0   0 # cp
   1241      1   3  0.000000    -4.987208151    26.145541760     5.832610000   0   0   0 # c
   1242      1   1  0.000000    -5.259978151    25.684041760     7.386320000   0   0   0 # cp
   1243      1   1 -0.100000    -5.442578151    24.336561760     7.666320000   0   0   0 # cp
   1244      1   1 -0.100000    -5.934368151    23.899691760     8.875090000   0   0   0 # cp
   1245      1   1  0.000000    -6.216298151    24.787091760     9.891220000   0   0   0 # cp
   1246      1   1 -0.100000    -5.783798151    26.080841760     9.709770000   0   0   0 # cp
   1247      1   1 -0.100000    -5.344078151    26.564141760     8.473800000   0   0   0 # cp
   1248      1   1 -0.100000    -7.027028151    24.749341760     4.911520000   0   0   0 # cp
   1249      1   1 -0.100000    -7.699763151    24.116001760     3.896990000   0   0   0 # cp
   1250      1   1  0.000000    -6.979445120    23.666282352     2.793875750   0   0   0 # cp
   1251      1   1 -0.100000    -5.607255120    23.721052352     2.848375750   0   0   0 # cp
   1252      1   1 -0.100000    -4.960468151    24.454621760     3.810630000   0   0   0 # cp
   1253      1   1  0.000000    -5.663008151    25.014431760     4.854330000   0   0   0 # cp
   1254      1   3  0.000000    -7.831756120    23.069532352     1.597875750   0   0   0 # c
   1255      1   1  0.000000   -11.189195519    25.250331393    -0.087989138   0   0   1 # cp
   1256      1   1 -0.100000   -10.142215120    25.917382352     0.503775750   0   0   0 # cp
   1257      1   1 -0.100000    -9.190555120    25.234572352     1.186075750   0   0   0 # cp
   1258      1   1  0.000000    -9.188885120    23.840222352     1.204575750   0   0   0 # cp
   1259      1   1 -0.100000   -10.256005120    23.146832352     0.606475750   0   0   0 # cp
   1260      1   1 -0.100000   -11.272255120    23.879062352     0.001675750   0   0   0 # cp
   1261      1   1  0.000000    -8.096192320    21.632372352     2.233575750   0   0   0 # cp
   1262      1   1 -0.100000    -7.214303120    20.583212352     2.065175750   0   0   0 # cp
   1263      1   1 -0.100000    -7.472974120    19.350742352     2.589175750   0   0   0 # cp
   1264      1   1  0.000000    -8.541307120    19.179892352     3.420875750   0   0   0 # cp
   1265      1   1 -0.100000    -9.362780151    20.213791760     3.705350000   0   0   0 # cp
   1266      1   1 -0.100000    -9.142295120    21.427252352     3.104875750   0   0   0 # cp
   1267      1   1 -0.100000    -7.605334151    21.397401760    27.441400000   0   0   0 # cp
   1268      1   1 -0.100000    -7.000858151    21.470511760    26.210900000   0   0   0 # cp
   1269      1   1  0.000000    -6.234708151    22.531531760    25.841500000   0   0   0 # cp
   1270      1   1 -0.100000    -6.072038151    23.559971760    26.741800000   0   0   0 # cp
   1271      1   1 -0.100000    -6.322295519    24.261701393    -0.177989138   0   0   1 # cp
   1272      1   1  0.000000    -7.068195120    23.141922352     0.203775750   0   0   0 # cp
   1273      1   2  0.100000    -7.062968151    27.686341760     6.963800000   0   0   0 # h
   1274      1   2  0.100000    -4.891675120    27.379102352     3.266775750   0   0   0 # h
   1275      1   2  0.100000    -6.746405120    28.283202352     2.109975750   0   0   0 # h
   1276      1   2  0.100000    -8.749573151    29.023741760     5.769270000   0   0   0 # h
   1277      1   2  0.100000    -5.270488151    23.600351760     6.893780000   0   0   0 # h
   1278      1   2  0.100000    -6.127578151    22.835491760     8.906980000   0   0   0 # h
   1279      1   2  0.100000    -5.868708151    26.787041760    10.503400000   0   0   0 # h
   1280      1   2  0.100000    -5.117848151    27.621741760     8.371500000   0   0   0 # h
   1281      1   2  0.100000    -7.612445151    25.184881760     5.672010000   0   0   0 # h
   1282      1   2  0.100000    -8.765214151    24.058301760     3.955710000   0   0   0 # h
   1283      1   2  0.100000    -5.047895120    23.253342352     2.082875750   0   0   0 # h
   1284      1   2  0.100000    -3.909218151    24.578661760     3.721300000   0   0   0 # h
   1285      1   2  0.100000   -10.019515120    26.998602352     0.379275750   0   0   0 # h
   1286      1   2  0.100000    -8.392082120    25.780752352     1.664675750   0   0   0 # h
   1287      1   2  0.100000   -10.280945120    22.065722352     0.487375750   0   0   0 # h
   1288      1   2  0.100000   -12.061905519    23.342781393    -0.508989138   0   0   1 # h
   1289      1   2  0.100000    -6.341215120    20.710602352     1.487075750   0   0   0 # h
   1290      1   2  0.100000    -6.769635120    18.518992352     2.447175750   0   0   0 # h
   1291      1   2  0.100000   -10.143158151    20.145551760     4.452790000   0   0   0 # h
   1292      1   2  0.100000    -9.847755120    22.217472352     3.330375750   0   0   0 # h
   1293      1   2  0.100000    -7.928096519    21.353141393    -0.502389138   0   0   1 # h
   1294      1   2  0.100000    -7.234218151    20.665311760    25.486200000   0   0   0 # h
   1295      1   2  0.100000    -5.509498151    24.443561760    26.517800000   0   0   0 # h
   1296      1   2  0.100000    -6.174435120    25.068312352     0.510975750   0   0   0 # h
   1297      1   1  0.000000    -1.586988151    17.170021760    19.430400000   0   0   0 # cp
   1298      1   1 -0.100000    -0.431978151    16.968131760    18.729700000   0   0   0 # cp
   1299      1   1 -0.100000     0.534341849    17.919931760    18.668100000   0   0   0 # cp
   1300      1   1  0.000000     0.330461849    19.190841760    19.191300000   0   0   0 # cp
   1301      1   1 -0.100000    -0.909848151    19.437771760    19.788000000   0   0   0 # cp
   1302      1   1 -0.100000    -1.806278151    18.418731760    19.999200000   0   0   0 # cp
   1303      1   2  0.100000    -0.203172000    15.961600000    18.373300000   0   0   0 # h
   1304      1   2  0.100000     1.478701849    17.651681760    18.227600000   0   0   0 # h
   1305      1   2  0.100000    -1.078248151    20.361371760    20.314900000   0   0   0 # h
   1306      1   2  0.100000    -2.704688151    18.612601760    20.577500000   0   0   0 # h
   1307      1   1 -0.100000     0.309141849    22.395491760    19.048500000   0   0   0 # cp
   1308      1   1  0.000000     1.224081849    21.692341760    19.818500000   0   0   0 # cp
   1309      1   1 -0.100000     1.955837512    22.390891760    20.776900000   0   0   0 # cp
   1310      1   1 -0.100000     1.823037512    23.743981760    20.897800000   0   0   0 # cp
   1311      1   1  0.000000     0.954807512    24.428051760    20.109900000   0   0   0 # cp
   1312      1   1 -0.100000     0.207221849    23.747371760    19.184300000   0   0   0 # cp
   1313      1   3  0.000000     1.583161849    20.164271760    19.417300000   0   0   0 # c
   1314      1   1  0.000000     2.538181849    20.427501760    18.150500000   0   0   0 # cp
   1315      1   1 -0.100000     3.734517512    21.089121760    18.285300000   0   0   0 # cp
   1316      1   1 -0.100000   -12.043368151    21.462871760    17.192700000   0   0   0 # cp
   1317      1   1  0.000000     4.139037512    21.049521760    15.938300000   0   0   0 # cp
   1318      1   1 -0.100000     2.991197512    20.321341760    15.778800000   0   0   0 # cp
   1319      1   1 -0.100000     2.145581849    20.109641760    16.856200000   0   0   0 # cp
   1320      1   1 -0.100000     1.790881849    19.383761760    21.907400000   0   0   0 # cp
   1321      1   1 -0.100000     2.599281849    19.227711760    22.994900000   0   0   0 # cp
   1322      1   1  0.000000     3.984177512    19.170921760    22.859900000   0   0   0 # cp
   1323      1   1 -0.100000     4.423757512    18.897751760    21.563200000   0   0   0 # cp
   1324      1   1 -0.100000     3.581407512    18.886131760    20.496300000   0   0   0 # cp
   1325      1   1  0.000000     2.308881849    19.400501760    20.635300000   0   0   0 # cp
   1326      1   3  0.000000     4.956607512    19.600171760    24.059500000   0   0   0 # c
   1327      1   1  0.000000   -11.874188151    23.911601760    25.004000000   0   0   0 # cp
   1328      1   1 -0.100000   -13.001978151    23.203191760    24.634600000   0   0   0 # cp
   1329      1   1 -0.100000     3.593427512    21.869061760    24.356800000   0   0   0 # cp
   1330      1   1  0.000000   -11.725858151    21.165581760    24.354400000   0   0   0 # cp
   1331      1   1 -0.100000   -10.600258151    21.926571760    24.675900000   0   0   0 # cp
   1332      1   1 -0.100000   -10.686058151    23.255641760    24.989600000   0   0   0 # cp
   1333      1   1  0.000000   -10.062258151    19.090401760    23.639100000   0   0   0 # cp
   1334      1   1 -0.100000    -9.639728151    17.804661760    23.952700000   0   0   0 # cp
   1335      1   1 -0.100000    -8.465684751    17.316031760    23.489900000   0   0   0 # cp
   1336      1   1  0.000000    -7.636742151    18.104321760    22.726400000   0   0   0 # cp
   1337      1   1 -0.100000    -7.992453151    19.399311760    22.467100000   0   0   0 # cp
   1338      1   1 -0.100000    -9.225779151    19.863661760    22.844400000   0   0   0 # cp
   1339      1   1 -0.100000   -10.938158151    19.214151760    26.531500000   0   0   0 # cp
   1340      1   1 -0.100000     5.767420144    19.425171393    -0.430289138   0   0   1 # cp
   1341      1   1  0.000000     4.611780144    18.728221393    -0.141489138   0   0   1 # cp
   1342      1   1 -0.100000     3.423381849    17.634331760    27.044500000   0   0   0 # cp
   1343      1   1 -0.100000     3.657481849    18.071361760    25.771900000   0   0   0 # cp
   1344      1   1  0.000000     4.681327512    18.976991760    25.497000000   0   0   0 # cp
   1345      1   2  0.100000    -0.232848151    21.888051760    18.264900000   0   0   0 # h
   1346      1   2  0.100000     2.705647512    21.896051760    21.365500000   0   0   0 # h
   1347      1   2  0.100000     2.451867512    24.244451760    21.591700000   0   0   0 # h
   1348      1   2  0.100000    -0.433788151    24.294231760    18.513500000   0   0   0 # h
   1349      1   2  0.100000     4.072717512    21.415421760    19.254400000   0   0   0 # h
   1350      1   2  0.100000   -11.177438151    22.055941760    17.386800000   0   0   0 # h
   1351      1   2  0.100000     2.724481849    19.870081760    14.850400000   0   0   0 # h
   1352      1   2  0.100000     1.197501849    19.636091760    16.661800000   0   0   0 # h
   1353      1   2  0.100000     0.746341849    19.629001760    22.046100000   0   0   0 # h
   1354      1   2  0.100000     2.108781849    19.412811760    23.950100000   0   0   0 # h
   1355      1   2  0.100000     5.452997512    18.751091760    21.312100000   0   0   0 # h
   1356      1   2  0.100000     4.019687512    18.709471760    19.523000000   0   0   0 # h
   1357      1   2  0.100000     2.541057512    23.658701760    24.622300000   0   0   0 # h
   1358      1   2  0.100000     2.625907512    21.407641760    24.305700000   0   0   0 # h
   1359      1   2  0.100000    -9.613198151    21.499131760    24.847500000   0   0   0 # h
   1360      1   2  0.100000    -9.774548151    23.701341760    25.353300000   0   0   0 # h
   1361      1   2  0.100000     6.247787512    17.143031760    24.534300000   0   0   0 # h
   1362      1   2  0.100000    -8.210410000    16.263300000    23.696400000   0   0   0 # h
   1363      1   2  0.100000    -7.389498151    20.054651760    21.871300000   0   0   0 # h
   1364      1   2  0.100000    -9.567338151    20.834781760    22.472800000   0   0   0 # h
   1365      1   2  0.100000   -10.098478151    19.861911760    26.384400000   0   0   0 # h
   1366      1   2  0.100000   -10.009605120    19.687542352     0.335275750   0   0   0 # h
   1367      1   2  0.100000     2.530681849    17.041861760    27.228800000   0   0   0 # h
   1368      1   2  0.100000     3.037081849    17.679561760    25.019100000   0   0   0 # h
   1369      1   1  0.000000    -2.003125120    26.375602352     0.861775750   0   0   0 # cp
   1370      1   1 -0.100000    -2.993035120    25.542972352     0.483475750   0   0   0 # cp
   1371      1   1 -0.100000    -2.811495120    24.180642352     0.569575750   0   0   0 # cp
   1372      1   1  0.000000    -1.584205120    23.643202352     0.996275750   0   0   0 # cp
   1373      1   1 -0.100000    -0.554625120    24.532852352     1.237875750   0   0   0 # cp
   1374      1   1 -0.100000    -0.766715120    25.880442352     1.148375750   0   0   0 # cp
   1375      1   2  0.100000    -3.938975120    25.994732352     0.204775750   0   0   0 # h
   1376      1   2  0.100000    -3.652275120    23.532702352     0.391475750   0   0   0 # h
   1377      1   2  0.100000     0.421304880    24.210222352     1.566475750   0   0   0 # h
   1378      1   2  0.100000     0.103190542    26.492702352     1.433075750   0   0   0 # h
   1379      1   1 -0.100000     1.105904880    21.767512352     0.659475750   0   0   0 # cp
   1380      1   1  0.000000     0.049464880    21.441172352     1.499275750   0   0   0 # cp
   1381      1   1 -0.100000     0.330334880    20.521032352     2.511375750   0   0   0 # cp
   1382      1   1 -0.100000     1.589174880    19.989372352     2.670875750   0   0   0 # cp
   1383      1   1  0.000000     2.610504880    20.362812352     1.861675750   0   0   0 # cp
   1384      1   1 -0.100000     2.361404880    21.238412352     0.818775750   0   0   0 # cp
   1385      1   3  0.000000    -1.414575120    22.034942352     1.252975750   0   0   0 # c
   1386      1   1  0.000000    -1.913325120    21.037362352     0.090475750   0   0   0 # cp
   1387      1   1 -0.100000    -2.096785120    19.662142352     0.328075750   0   0   0 # cp
   1388      1   1 -0.100000    -2.737788151    18.034461760    27.469700000   0   0   0 # cp
   1389      1   1  0.000000    -2.856328151    18.545321760    26.201400000   0   0   0 # cp
   1390      1   1 -0.100000    -2.703638151    19.877161760    25.961700000   0   0   0 # cp
   1391      1   1 -0.100000    -2.356828151    20.723251760    26.982300000   0   0   0 # cp
   1392      1   1 -0.100000    -1.828558151    22.472511760     3.722960000   0   0   0 # cp
   1393      1   1 -0.100000    -2.221908151    21.974441760     4.941320000   0   0   0 # cp
   1394      1   1  0.000000    -3.159068151    20.963791760     5.031790000   0   0   0 # cp
   1395      1   1 -0.100000    -3.793878151    20.613291760     3.840030000   0   0   0 # cp
   1396      1   1 -0.100000    -3.425825120    21.148712352     2.641175750   0   0   0 # cp
   1397      1   1  0.000000    -2.282425120    21.919282352     2.555875750   0   0   0 # cp
   1398      1   3  0.000000    -3.267198151    19.980931760     6.333350000   0   0   0 # c
   1399      1   1  0.000000     0.555691849    17.837151760     6.480140000   0   0   0 # cp
   1400      1   1 -0.100000    -0.498578151    17.244231760     5.801000000   0   0   0 # cp
   1401      1   1 -0.100000    -1.690958151    17.920671760     5.665260000   0   0   0 # cp
   1402      1   1  0.000000    -1.869368151    19.148271760     6.275990000   0   0   0 # cp
   1403      1   1 -0.100000    -0.766228151    19.781111760     6.820490000   0   0   0 # cp
   1404      1   1 -0.100000     0.446331849    19.139111760     6.871460000   0   0   0 # cp
   1405      1   1  0.000000    -4.687828151    19.334581760     6.300460000   0   0   0 # cp
   1406      1   1 -0.100000    -5.815398151    20.146241760     6.356660000   0   0   0 # cp
   1407      1   1 -0.100000    -7.077178151    19.641791760     6.249920000   0   0   0 # cp
   1408      1   1  0.000000    -7.246798151    18.321471760     6.019020000   0   0   0 # cp
   1409      1   1 -0.100000    -6.191898151    17.478761760     6.026440000   0   0   0 # cp
   1410      1   1 -0.100000    -4.922458151    17.964761760     6.228350000   0   0   0 # cp
   1411      1   1 -0.100000    -3.450248151    19.516041760     8.878010000   0   0   0 # cp
   1412      1   1 -0.100000    -3.309608151    19.789641760    10.206400000   0   0   0 # cp
   1413      1   1  0.000000    -2.898798151    21.018401760    10.609400000   0   0   0 # cp
   1414      1   1 -0.100000    -2.818398151    22.038151760     9.675970000   0   0   0 # cp
   1415      1   1 -0.100000    -3.075768151    21.775171760     8.336740000   0   0   0 # cp
   1416      1   1  0.000000    -3.340748151    20.497661760     7.892980000   0   0   0 # cp
   1417      1   2  0.100000     0.940654481    22.413221393    -0.189289138   0   0   1 # h
   1418      1   2  0.100000    -0.458545120    20.172382352     3.156575750   0   0   0 # h
   1419      1   2  0.100000     1.698914880    19.234372352     3.435975750   0   0   0 # h
   1420      1   2  0.100000     3.154670542    21.520582352     0.137675750   0   0   0 # h
   1421      1   2  0.100000    -1.961155120    19.208272352     1.303475750   0   0   0 # h
   1422      1   2  0.100000    -2.670145519    17.762311393    -0.506189138   0   0   1 # h
   1423      1   2  0.100000    -2.810968151    20.269901760    24.959400000   0   0   0 # h
   1424      1   2  0.100000    -2.137328151    21.751621760    26.744200000   0   0   0 # h
   1425      1   2  0.100000    -0.971678151    23.128241760     3.671080000   0   0   0 # h
   1426      1   2  0.100000    -1.707218151    22.271841760     5.842090000   0   0   0 # h
   1427      1   2  0.100000    -4.568438151    19.875491760     3.811980000   0   0   0 # h
   1428      1   2  0.100000    -3.956065120    20.824462352     1.768875750   0   0   0 # h
   1429      1   2  0.100000    -0.434844000    16.219400000     5.459750000   0   0   0 # h
   1430      1   2  0.100000    -2.488308151    17.444641760     5.106000000   0   0   0 # h
   1431      1   2  0.100000    -0.807848151    20.753541760     7.279310000   0   0   0 # h
   1432      1   2  0.100000     1.261571849    19.605031760     7.372410000   0   0   0 # h
   1433      1   2  0.100000    -5.698118151    21.215561760     6.349980000   0   0   0 # h
   1434      1   2  0.100000    -7.916622151    20.306301760     6.221660000   0   0   0 # h
   1435      1   2  0.100000    -6.326550000    16.430700000     5.848840000   0   0   0 # h
   1436      1   2  0.100000    -4.110518151    17.264341760     6.238390000   0   0   0 # h
   1437      1   2  0.100000    -3.568838151    18.472401760     8.580670000   0   0   0 # h
   1438      1   2  0.100000    -3.374538151    18.952001760    10.903500000   0   0   0 # h
   1439      1   2  0.100000    -2.440728151    23.012901760     9.960180000   0   0   0 # h
   1440      1   2  0.100000    -2.874298151    22.560061760     7.638240000   0   0   0 # h
   1441      1   1  0.000000   -10.004638151    23.553771760    14.849000000   0   0   0 # cp
   1442      1   1 -0.100000   -11.117808151    24.358751760    15.063800000   0   0   0 # cp
   1443      1   1 -0.100000   -11.058488151    25.716241760    14.845500000   0   0   0 # cp
   1444      1   1  0.000000    -9.897788151    26.315341760    14.426900000   0   0   0 # cp
   1445      1   1 -0.100000    -8.771095151    25.498141760    14.242900000   0   0   0 # cp
   1446      1   1 -0.100000    -8.805187151    24.133491760    14.483800000   0   0   0 # cp
   1447      1   2  0.100000   -12.060828151    23.893331760    15.292800000   0   0   0 # h
   1448      1   2  0.100000   -11.947988151    26.321441760    14.999500000   0   0   0 # h
   1449      1   2  0.100000    -7.833438151    25.889341760    13.891200000   0   0   0 # h
   1450      1   2  0.100000    -7.969095151    23.516941760    14.227600000   0   0   0 # h
   1451      1   1 -0.100000    -7.367258151    28.389841760    14.417000000   0   0   0 # cp
   1452      1   1  0.000000    -8.569023151    28.668341760    13.772200000   0   0   0 # cp
   1453      1   1 -0.100000    -8.544924151    29.723941760    12.844600000   0   0   0 # cp
   1454      1   1 -0.100000     9.426973442    -0.592669919    12.512900000   0   1   0 # cp
   1455      1   1  0.000000    -6.201688151    30.042241760    13.149100000   0   0   0 # cp
   1456      1   1 -0.100000    -6.201968151    29.066941760    14.111600000   0   0   0 # cp
   1457      1   3  0.000000    -9.949708151    27.909941760    14.130300000   0   0   0 # c
   1458      1   1  0.000000   -10.489028151    28.814141760    15.367700000   0   0   0 # cp
   1459      1   1 -0.100000   -10.787508151    30.167341760    15.213700000   0   0   0 # cp
   1460      1   1 -0.100000    -2.842040000    15.473000000    16.271400000   0   0   0 # cp
   1461      1   1  0.000000     5.412433442    -0.597469919    17.511300000   0   1   0 # cp
   1462      1   1 -0.100000   -10.995368151    29.073341760    17.688000000   0   0   0 # cp
   1463      1   1 -0.100000   -10.509878151    28.334441760    16.659800000   0   0   0 # cp
   1464      1   1 -0.100000   -10.385708151    27.290941760    11.697200000   0   0   0 # cp
   1465      1   1 -0.100000   -10.819448151    27.651841760    10.439600000   0   0   0 # cp
   1466      1   1  0.000000   -11.799768151    28.598141760    10.265600000   0   0   0 # cp
   1467      1   1 -0.100000   -12.444648151    29.017841760    11.441500000   0   0   0 # cp
   1468      1   1 -0.100000   -12.040888151    28.597341760    12.685900000   0   0   0 # cp
   1469      1   1  0.000000   -10.887078151    27.879741760    12.840300000   0   0   0 # cp
   1470      1   3  0.000000   -11.894298151    29.395341760     8.878420000   0   0   0 # c
   1471      1   1  0.000000     0.337351000    16.053300000     8.939480000   0   0   0 # cp
   1472      1   1 -0.100000    -8.180787151    30.246041760     8.473420000   0   0   0 # cp
   1473      1   1 -0.100000    -9.409348151    29.679341760     8.436480000   0   0   0 # cp
   1474      1   1  0.000000   -10.542288151    30.290841760     8.937720000   0   0   0 # cp
   1475      1   1 -0.100000    -1.957650000    16.020700000     9.564440000   0   0   0 # cp
   1476      1   1 -0.100000    -0.745641000    16.683700000     9.544090000   0   0   0 # cp
   1477      1   1  0.000000   -13.370168151    29.985141760     8.878330000   0   0   0 # cp
   1478      1   1 -0.100000   -14.442878151    29.082341760     8.903300000   0   0   0 # cp
   1479      1   1 -0.100000   -15.707168151    29.556241760     9.018800000   0   0   0 # cp
   1480      1   1  0.000000    -7.570310000    15.431100000     9.062840000   0   0   0 # cp
   1481      1   1 -0.100000    -6.530610000    16.308000000     9.011470000   0   0   0 # cp
   1482      1   1 -0.100000    -5.228700000    15.855600000     8.946270000   0   0   0 # cp
   1483      1   1 -0.100000   -12.168968151    29.584341760     6.338470000   0   0   0 # cp
   1484      1   1 -0.100000   -11.780008151    29.264541760     5.075390000   0   0   0 # cp
   1485      1   1  0.000000   -11.170048151    28.080041760     4.794100000   0   0   0 # cp
   1486      1   1 -0.100000   -11.011428151    27.172341760     5.806770000   0   0   0 # cp
   1487      1   1 -0.100000   -11.372638151    27.488141760     7.087480000   0   0   0 # cp
   1488      1   1  0.000000   -11.866688151    28.739641760     7.392370000   0   0   0 # cp
   1489      1   2  0.100000    -7.373668151    27.669141760    15.223600000   0   0   0 # h
   1490      1   2  0.100000    -9.423168151    30.029841760    12.330700000   0   0   0 # h
   1491      1   2  0.100000     0.982420000    15.637100000    11.743700000   0   0   0 # h
   1492      1   2  0.100000    -5.332378151    28.783941760    14.649300000   0   0   0 # h
   1493      1   2  0.100000    -2.343970000    15.141600000    14.239200000   0   0   0 # h
   1494      1   2  0.100000    -3.136130000    16.516300000    16.087100000   0   0   0 # h
   1495      1   2  0.100000   -11.073688151    28.659241760    18.676700000   0   0   0 # h
   1496      1   2  0.100000   -10.159818151    27.328141760    16.867900000   0   0   0 # h
   1497      1   2  0.100000    -9.492248151    26.678841760    11.745500000   0   0   0 # h
   1498      1   2  0.100000   -10.279838151    27.193341760     9.632190000   0   0   0 # h
   1499      1   2  0.100000   -13.252708151    29.759141760    11.392700000   0   0   0 # h
   1500      1   2  0.100000   -12.530228151    28.969341760    13.585000000   0   0   0 # h
   1501      1   2  0.100000    -7.359988151    29.754341760     7.957440000   0   0   0 # h
   1502      1   2  0.100000    -9.405318151    28.690941760     8.055840000   0   0   0 # h
   1503      1   2  0.100000    -2.762900000    16.473300000    10.091300000   0   0   0 # h
   1504      1   2  0.100000    -0.671158151    17.699941760     9.948800000   0   0   0 # h
   1505      1   2  0.100000   -14.293878151    28.020841760     8.881560000   0   0   0 # h
   1506      1   2  0.100000    -0.038942488    28.893141760     9.048820000   0   0   0 # h
   1507      1   2  0.100000    -6.796888151    17.344561760     9.138250000   0   0   0 # h
   1508      1   2  0.100000    -4.475220000    16.578200000     8.918150000   0   0   0 # h
   1509      1   2  0.100000     4.206413442    -0.379069919     6.418860000   0   1   0 # h
   1510      1   2  0.100000   -11.845118151    30.035041760     4.331930000   0   0   0 # h
   1511      1   2  0.100000   -10.533918151    26.199641760     5.653310000   0   0   0 # h
   1512      1   2  0.100000   -11.127758151    26.740541760     7.844010000   0   0   0 # h
   1513      1   4 -0.200000     1.751881849    17.047691760     6.967090000   0   0   0 # c2
   1514      1   4 -0.200000     1.620450000    16.774200000     8.517400000   0   0   0 # c2
   1515      1   2  0.100000     1.810910000    16.125600000     6.362080000   0   0   0 # h
   1516      1   2  0.100000     2.710081849    17.591501760     6.766470000   0   0   0 # h
   1517      1   2  0.100000     1.683381849    17.755151760     9.054820000   0   0   0 # h
   1518      1   2  0.100000     2.504980000    16.167500000     8.849900000   0   0   0 # h
   1519      1   4 -0.200000    -3.564860000    15.662600000    18.693000000   0   0   0 # c2
   1520      1   4 -0.200000    -2.545990000    16.049600000    19.814400000   0   0   0 # c2
   1521      1   2  0.100000    -4.369660000    15.040300000    19.132900000   0   0   0 # h
   1522      1   2  0.100000    -4.066930000    16.595400000    18.331400000   0   0   0 # h
   1523      1   2  0.100000    -1.980430000    15.147700000    20.152800000   0   0   0 # h
   1524      1   2  0.100000    -3.147310000    16.394000000    20.695900000   0   0   0 # h
   1525      1   4 -0.200000   -11.411248151    21.268001760    14.761800000   0   0   0 # c2
   1526      1   4 -0.200000   -10.064578151    22.018621760    14.959900000   0   0   0 # c2
   1527      1   2  0.100000   -11.197908151    20.241341760    14.376500000   0   0   0 # h
   1528      1   2  0.100000   -11.942318151    21.725611760    13.925200000   0   0   0 # h
   1529      1   2  0.100000    -9.527548151    21.728991760    15.888100000   0   0   0 # h
   1530      1   2  0.100000    -9.447298151    21.621011760    14.154900000   0   0   0 # h
   1531      1   4 -0.200000     4.335390542    18.470202352     1.328275750   0   0   0 # c2
   1532      1   4 -0.200000     4.012000542    19.740972352     2.149975750   0   0   0 # c2
   1533      1   2  0.100000     3.514804880    17.698872352     1.459175750   0   0   0 # h
   1534      1   2  0.100000     5.284800542    18.009102352     1.726275750   0   0   0 # h
   1535      1   2  0.100000     4.772470542    20.501412352     2.059075750   0   0   0 # h
   1536      1   2  0.100000     4.071220542    19.438062352     3.206775750   0   0   0 # h
   1537      1   4 -0.200000    -8.630474151    17.817251760     5.656120000   0   0   0 # c2
   1538      1   4 -0.200000    -8.864207151    17.838701760     4.104800000   0   0   0 # c2
   1539      1   2  0.100000    -8.772590000    16.836000000     6.091710000   0   0   0 # h
   1540      1   2  0.100000    -9.378752151    18.500951760     6.118690000   0   0   0 # h
   1541      1   2  0.100000     6.589647512    17.572811760     3.852840000   0   0   0 # h
   1542      1   2  0.100000    -8.254806969    17.044460592     3.647475750   0   0   0 # h
   1543      1   4 -0.200000   -10.419995120    27.909302352     3.457875750   0   0   0 # c2
   1544      1   4 -0.200000    -9.260815120    28.875602352     3.143075750   0   0   0 # c2
   1545      1   2  0.100000   -11.165305120    27.981502352     2.613975750   0   0   0 # h
   1546      1   2  0.100000   -10.077505120    26.849202352     3.381275750   0   0   0 # h
   1547      1   2  0.100000    -9.546305120    29.923802352     3.356075750   0   0   0 # h
   1548      1   2  0.100000    -9.103465120    28.859002352     2.043875750   0   0   0 # h
   1549      1   4 -0.200000   -12.467668151    25.200921760    27.133800000   0   0   0 # c2
   1550      1   4 -0.200000   -11.960128151    25.284621760    25.685500000   0   0   0 # c2
   1551      1   2  0.100000   -13.426208151    24.683571760    27.205600000   0   0   0 # h
   1552      1   2  0.100000   -12.691278151    26.228541760    27.527700000   0   0   0 # h
   1553      1   2  0.100000   -12.767748151    25.805741760    25.093100000   0   0   0 # h
   1554      1   2  0.100000   -11.030638151    25.901541760    25.562600000   0   0   0 # h
   1555      1   4 -0.200000    -3.376798151    17.693571760    25.053400000   0   0   0 # c2
   1556      1   4 -0.200000    -2.392248151    17.472981760    23.901000000   0   0   0 # c2
   1557      1   2  0.100000    -3.765768151    16.740561760    25.453200000   0   0   0 # h
   1558      1   2  0.100000    -4.284538151    18.177861760    24.657900000   0   0   0 # h
   1559      1   2  0.100000    -2.994118151    17.195331760    23.031000000   0   0   0 # h
   1560      1   2  0.100000    -1.930708151    18.421951760    23.605700000   0   0   0 # h
   1561      1   4 -0.200000    -1.964595519    28.821601393    -0.087089138   0   0   1 # c2
   1562      1   4 -0.200000    -2.315905120    27.853602352     1.068775750   0   0   0 # c2
   1563      1   2  0.100000    -1.368042488    27.696641760    27.576200000   0   0   0 # h
   1564      1   2  0.100000    -1.697989458    29.773802352     0.387275750   0   0   0 # h
   1565      1   2  0.100000    -1.715765120    28.197702352     1.954075750   0   0   0 # h
   1566      1   2  0.100000    -3.368125120    27.963902352     1.380375750   0   0   0 # h
   1567      1   4 -0.200000    -6.377348151    17.171961760    20.629800000   0   0   0 # c2
   1568      1   4 -0.200000    -6.366668151    17.436781760    22.154900000   0   0   0 # c2
   1569      1   2  0.100000    -6.254158151    18.161501760    20.149800000   0   0   0 # h
   1570      1   2  0.100000    -5.473350000    16.596100000    20.352400000   0   0   0 # h
   1571      1   2  0.100000    -5.510618151    18.125931760    22.339400000   0   0   0 # h
   1572      1   2  0.100000    -6.067660000    16.504700000    22.688500000   0   0   0 # h
   1573      1   4 -0.200000    -5.814018151    22.700051760    24.387400000   0   0   0 # c2
   1574      1   4 -0.200000    -6.908468151    23.297731760    23.436600000   0   0   0 # c2
   1575      1   2  0.100000    -4.898338151    23.328871760    24.372800000   0   0   0 # h
   1576      1   2  0.100000    -5.496208151    21.724741760    23.976900000   0   0   0 # h
   1577      1   2  0.100000    -6.700358151    22.945031760    22.424500000   0   0   0 # h
   1578      1   2  0.100000    -7.893881151    22.897141760    23.736500000   0   0   0 # h
   1579      1   4 -0.200000     3.822830000    16.512700000    13.694800000   0   0   0 # c2
   1580      1   4 -0.200000     3.472440000    15.312600000    12.773500000   0   0   0 # c2
   1581      1   2  0.100000     2.990181849    17.236141760    13.709500000   0   0   0 # h
   1582      1   2  0.100000     4.682807512    17.065431760    13.285500000   0   0   0 # h
   1583      1   2  0.100000     3.406250000    15.639500000    11.739500000   0   0   0 # h
   1584      1   2  0.100000    -4.106758151    30.083841760    12.810500000   0   0   0 # h
   1585      1   4 -0.200000    -6.793258151    24.340791760    11.246500000   0   0   0 # c2
   1586      1   4 -0.200000    -7.646962151    23.016121760    11.287900000   0   0   0 # c2
   1587      1   2  0.100000    -5.932698151    24.203121760    11.919600000   0   0   0 # h
   1588      1   2  0.100000    -7.326428151    25.201561760    11.683200000   0   0   0 # h
   1589      1   2  0.100000    -7.165048151    22.246851760    10.668800000   0   0   0 # h
   1590      1   2  0.100000    -7.605551151    22.561241760    12.293700000   0   0   0 # h
   1591      1   4 -0.200000     1.589937512    25.264591760     4.616770000   0   0   0 # c2
   1592      1   4 -0.200000     0.689607512    26.515341760     4.562510000   0   0   0 # c2
   1593      1   2  0.100000     2.462177512    25.429191760     3.971270000   0   0   0 # h
   1594      1   2  0.100000     1.049337512    24.447261760     4.078610000   0   0   0 # h
   1595      1   2  0.100000     0.711950542    26.932902352     3.541375750   0   0   0 # h
   1596      1   2  0.100000     1.154127512    27.354041760     5.122850000   0   0   0 # h
   1597      1   4 -0.200000     7.098185662    16.028500000    10.782900000   0   0   0 # c2
   1598      1   4 -0.200000     7.477755662    15.863500000     9.280430000   0   0   0 # c2
   1599      1   2  0.100000     6.070705662    16.356700000    10.839200000   0   0   0 # h
   1600      1   2  0.100000    -8.828144151    16.878341760    11.185600000   0   0   0 # h
   1601      1   2  0.100000    -9.146270000    16.812900000     8.758490000   0   0   0 # h
   1602      1   2  0.100000    15.134069105    -0.285169919     8.760980000   0   1   0 # h
   1603      1   4 -0.200000    -2.317638151    21.119921760    12.039300000   0   0   0 # c2
   1604      1   4 -0.200000    -1.127778151    20.156481760    12.329400000   0   0   0 # c2
   1605      1   2  0.100000    -1.978658151    22.136721760    12.278200000   0   0   0 # h
   1606      1   2  0.100000    -3.128888151    20.920251760    12.740300000   0   0   0 # h
   1607      1   2  0.100000    -1.321558151    19.131441760    11.962500000   0   0   0 # h
   1608      1   2  0.100000    -1.043758151    20.072511760    13.418600000   0   0   0 # h
   1609      1   4 -0.200000   -14.484958151    26.694541760    19.442000000   0   0   0 # c2
   1610      1   4 -0.200000     0.880027512    25.972841760    20.155900000   0   0   0 # c2
   1611      1   2  0.100000   -13.519218151    26.172641760    19.637000000   0   0   0 # h
   1612      1   2  0.100000   -14.381388151    27.706141760    19.873800000   0   0   0 # h
   1613      1   2  0.100000    -0.093102488    26.373141760    19.782200000   0   0   0 # h
   1614      1   2  0.100000     0.933067512    26.325341760    21.211300000   0   0   0 # h
   1615      1   4 -0.200000    -3.996988151    23.816381760    17.087700000   0   0   0 # c2
   1616      1   4 -0.200000    -3.802338151    24.263241760    18.588600000   0   0   0 # c2
   1617      1   2  0.100000    -3.860058151    22.713741760    17.073200000   0   0   0 # h
   1618      1   2  0.100000    -5.033698151    23.996711760    16.777800000   0   0   0 # h
   1619      1   2  0.100000    -2.812328151    23.908461760    18.866200000   0   0   0 # h
   1620      1   2  0.100000    -4.481978151    23.663101760    19.208800000   0   0   0 # h
   1621      1   1  0.000000     7.380424512    23.088821760    10.893000000   0   0   0 # cp
   1622      1   1 -0.100000     6.815887512    24.214211760    10.374600000   0   0   0 # cp
   1623      1   1 -0.100000     5.498997512    24.243101760    10.072300000   0   0   0 # cp
   1624      1   1  0.000000     4.666267512    23.120461760    10.261800000   0   0   0 # cp
   1625      1   1 -0.100000     5.315797512    21.946441760    10.663400000   0   0   0 # cp
   1626      1   1 -0.100000     6.640687512    21.928201760    11.013400000   0   0   0 # cp
   1627      1   2  0.100000     7.441737512    25.067371760    10.166500000   0   0   0 # h
   1628      1   2  0.100000     5.075157512    25.151461760     9.667740000   0   0   0 # h
   1629      1   2  0.100000   -11.754136826    21.036351760    10.773100000   1   0   0 # h
   1630      1   2  0.100000     7.069007512    20.983491760    11.312400000   0   0   0 # h
   1631      1   1 -0.100000   -15.175172488    21.282371760     9.759450000   1   0   0 # cp
   1632      1   1  0.000000   -14.244846826    21.957321760    10.532900000   1   0   0 # cp
   1633      1   1 -0.100000   -14.273036826    21.714441760    11.921200000   1   0   0 # cp
   1634      1   1 -0.100000   -15.354422488    21.125671760    12.518200000   1   0   0 # cp
   1635      1   1  0.000000   -16.326882488    20.600871760    11.727700000   1   0   0 # cp
   1636      1   1 -0.100000   -16.165112488    20.538541760    10.371300000   1   0   0 # cp
   1637      1   3  0.000000   -13.435406826    23.228831760     9.984330000   1   0   0 # c
   1638      1   1  0.000000   -13.640416826    23.747631760     8.464380000   1   0   0 # cp
   1639      1   1 -0.100000     2.795237512    25.121241760     8.219720000   0   0   0 # cp
   1640      1   1 -0.100000   -14.202596826    25.584541760     7.033250000   1   0   0 # cp
   1641      1   1  0.000000   -14.446446826    24.725061760     5.979300000   1   0   0 # cp
   1642      1   1 -0.100000   -14.105476826    23.383821760     6.145280000   1   0   0 # cp
   1643      1   1 -0.100000   -13.727966826    22.887341760     7.363610000   1   0   0 # cp
   1644      1   1 -0.100000   -15.537486826    24.519111760    10.778300000   1   0   0 # cp
   1645      1   1 -0.100000   -16.230726826    25.170191760    11.758500000   1   0   0 # cp
   1646      1   1  0.000000   -15.591106826    25.856941760    12.768600000   1   0   0 # cp
   1647      1   1 -0.100000     2.311567512    25.865241760    12.753400000   0   0   0 # cp
   1648      1   1 -0.100000     3.002057512    24.991651760    11.939100000   0   0   0 # cp
   1649      1   1  0.000000   -14.166196826    24.331231760    10.912900000   1   0   0 # cp
   1650      1   3  0.000000   -16.408596826    26.604741760    13.909100000   1   0   0 # c
   1651      1   1  0.000000   -19.537022488    24.453801760    16.047100000   1   0   0 # cp
   1652      1   1 -0.100000   -18.401022488    23.796761760    15.662100000   1   0   0 # cp
   1653      1   1 -0.100000   -17.489952488    24.402391760    14.837400000   1   0   0 # cp
   1654      1   1  0.000000   -17.633072488    25.723341760    14.459600000   1   0   0 # cp
   1655      1   1 -0.100000   -18.827322488    26.368341760    14.826000000   1   0   0 # cp
   1656      1   1 -0.100000   -19.825742488    25.680041760    15.479700000   1   0   0 # cp
   1657      1   1  0.000000   -16.846836826    27.919041760    13.083200000   1   0   0 # cp
   1658      1   1 -0.100000     0.386687512    29.090141760    13.199600000   0   0   0 # cp
   1659      1   1 -0.100000     0.051787512    30.236341760    12.517400000   0   0   0 # cp
   1660      1   1  0.000000   -17.567136826    30.260841760    11.702000000   1   0   0 # cp
   1661      1   1 -0.100000   -18.316226826    29.111341760    11.559200000   1   0   0 # cp
   1662      1   1 -0.100000   -17.963022488    27.947941760    12.246700000   1   0   0 # cp
   1663      1   1 -0.100000   -16.013656826    27.810241760    16.163900000   1   0   0 # cp
   1664      1   1 -0.100000     0.977567512    27.873741760    17.447000000   0   0   0 # cp
   1665      1   1  0.000000     1.734647512    26.830941760    17.942100000   0   0   0 # cp
   1666      1   1 -0.100000     2.220167512    25.871841760    17.094500000   0   0   0 # cp
   1667      1   1 -0.100000   -14.750576826    25.830541760    15.820800000   1   0   0 # cp
   1668      1   1  0.000000   -15.652506826    26.772641760    15.312000000   1   0   0 # cp
   1669      1   2  0.100000   -15.270402488    21.412811760     8.678820000   1   0   0 # h
   1670      1   2  0.100000   -13.582916826    22.259401760    12.555500000   1   0   0 # h
   1671      1   2  0.100000   -15.429572488    21.135151760    13.584000000   1   0   0 # h
   1672      1   2  0.100000   -16.888962488    20.055221760     9.750000000   1   0   0 # h
   1673      1   2  0.100000     3.059867512    25.853341760     8.958890000   0   0   0 # h
   1674      1   2  0.100000     2.180737512    26.656841760     6.900300000   0   0   0 # h
   1675      1   2  0.100000   -14.180466826    22.660621760     5.348480000   1   0   0 # h
   1676      1   2  0.100000   -13.555056826    21.821141760     7.464340000   1   0   0 # h
   1677      1   2  0.100000   -16.070282488    24.088061760     9.959280000   1   0   0 # h
   1678      1   2  0.100000   -17.292142488    25.191821760    11.674500000   1   0   0 # h
   1679      1   2  0.100000     2.875247512    26.490241760    13.454900000   0   0   0 # h
   1680      1   2  0.100000     4.099977512    24.924381760    12.069700000   0   0   0 # h
   1681      1   2  0.100000   -18.197442488    22.795831760    15.993700000   1   0   0 # h
   1682      1   2  0.100000   -16.620092488    23.854621760    14.511600000   1   0   0 # h
   1683      1   2  0.100000   -18.965042488    27.430941760    14.656200000   1   0   0 # h
   1684      1   2  0.100000   -20.782292488    26.150541760    15.715400000   1   0   0 # h
   1685      1   2  0.100000     1.285067512    29.018641760    13.802100000   0   0   0 # h
   1686      1   2  0.100000     9.079645662    15.631800000    12.559600000   0   0   0 # h
   1687      1   2  0.100000   -19.123442488    29.069841760    10.820600000   1   0   0 # h
   1688      1   2  0.100000   -18.599542488    27.097741760    12.140400000   1   0   0 # h
   1689      1   2  0.100000   -16.707946826    28.566041760    15.833500000   1   0   0 # h
   1690      1   2  0.100000     0.677637512    28.704641760    18.108100000   0   0   0 # h
   1691      1   2  0.100000     2.827047512    25.057431760    17.507100000   0   0   0 # h
   1692      1   2  0.100000   -14.480586826    25.000621760    15.223900000   1   0   0 # h
   1693      1   1  0.000000   -17.816844338    16.391800000    24.123500000   1   0   0 # cp
   1694      1   1 -0.100000   -16.596462488    16.721131760    24.617000000   1   0   0 # cp
   1695      1   1 -0.100000   -15.585059338    15.773900000    24.659700000   1   0   0 # cp
   1696      1   1  0.000000   -24.171723488    29.995641760    24.109600000   1   0   0 # cp
   1697      1   1 -0.100000     7.617795512    29.703441760    23.583600000   0   0   0 # cp
   1698      1   1 -0.100000    15.003965662    15.125500000    23.637900000   0   0   0 # cp
   1699      1   2  0.100000   -16.437492488    17.738391760    24.909900000   1   0   0 # h
   1700      1   2  0.100000   -14.578604338    16.046500000    24.936100000   1   0   0 # h
   1701      1   2  0.100000     7.446455512    28.757141760    23.097800000   0   0   0 # h
   1702      1   2  0.100000    14.051655662    14.857300000    23.230100000   0   0   0 # h
   1703      1   1 -0.100000     9.050054512    26.887141760    24.484800000   0   0   0 # cp
   1704      1   1  0.000000   -23.184772488    27.577941760    23.606700000   1   0   0 # cp
   1705      1   1 -0.100000   -22.486662488    26.815741760    22.671200000   1   0   0 # cp
   1706      1   1 -0.100000   -22.638172488    25.466321760    22.583600000   1   0   0 # cp
   1707      1   1  0.000000     9.558437512    24.805041760    23.456700000   0   0   0 # cp
   1708      1   1 -0.100000     8.902175512    25.529441760    24.424500000   0   0   0 # cp
   1709      1   3  0.000000   -22.857342488    29.107241760    23.887800000   1   0   0 # c
   1710      1   1  0.000000   -21.771172488    28.921241760    25.053000000   1   0   0 # cp
   1711      1   1 -0.100000   -20.543462488    28.339541760    24.771000000   1   0   0 # cp
   1712      1   1 -0.100000   -19.636862488    28.042341760    25.730300000   1   0   0 # cp
   1713      1   1  0.000000   -19.902412488    28.344841760    27.058400000   1   0   0 # cp
   1714      1   1 -0.100000   -21.073122488    29.007141760    27.344500000   1   0   0 # cp
   1715      1   1 -0.100000   -22.003682488    29.262441760    26.358200000   1   0   0 # cp
   1716      1   1 -0.100000   -22.844532488    29.803741760    21.409100000   1   0   0 # cp
   1717      1   1 -0.100000    -5.388030895    -0.724769919    20.281300000   1   1   0 # cp
   1718      1   1  0.000000   -12.463004338    15.091200000    20.328000000   1   0   0 # cp
   1719      1   1 -0.100000   -11.945754338    15.381300000    21.578500000   1   0   0 # cp
   1720      1   1 -0.100000   -12.644404338    15.105400000    22.727000000   1   0   0 # cp
   1721      1   1  0.000000   -22.222262488    29.868341760    22.638600000   1   0   0 # cp
   1722      1   3  0.000000    -3.069070895    -0.807269919    19.152100000   1   1   0 # c
   1723      1   1  0.000000   -20.405732488    25.747241760    18.962900000   1   0   0 # cp
   1724      1   1 -0.100000   -21.247992488    26.594241760    18.261400000   1   0   0 # cp
   1725      1   1 -0.100000   -21.036862488    27.954541760    18.342900000   1   0   0 # cp
   1726      1   1  0.000000   -20.068652488    28.535141760    19.161800000   1   0   0 # cp
   1727      1   1 -0.100000   -19.431272488    27.643641760    20.009300000   1   0   0 # cp
   1728      1   1 -0.100000   -19.555572488    26.276241760    19.892800000   1   0   0 # cp
   1729      1   1  0.000000   -10.019088675    15.290100000    19.406300000   1   0   0 # cp
   1730      1   1 -0.100000    -9.864596826    16.683251760    19.299900000   1   0   0 # cp
   1731      1   1 -0.100000     7.830519512    17.270901760    19.651400000   0   0   0 # cp
   1732      1   1  0.000000     8.894935662    16.508300000    20.059300000   0   0   0 # cp
   1733      1   1 -0.100000     8.760035662    15.146800000    20.070700000   0   0   0 # cp
   1734      1   1 -0.100000   -17.313816826    30.035341760    19.759600000   1   0   0 # cp
   1735      1   1 -0.100000   -19.516842488    30.124341760    16.608300000   1   0   0 # cp
   1736      1   1 -0.100000   -11.321374338    15.151600000    15.351200000   1   0   0 # cp
   1737      1   1  0.000000   -12.328384338    16.070400000    15.108900000   1   0   0 # cp
   1738      1   1 -0.100000   -12.987124338    16.611600000    16.189600000   1   0   0 # cp
   1739      1   1 -0.100000   -12.638464338    16.253200000    17.475600000   1   0   0 # cp
   1740      1   1  0.000000   -11.785784338    15.183200000    17.682200000   1   0   0 # cp
   1741      1   2  0.100000     8.577581512    27.476241760    25.251700000   0   0   0 # h
   1742      1   2  0.100000   -21.734022488    27.254341760    22.044700000   1   0   0 # h
   1743      1   2  0.100000   -22.010452488    24.883801760    21.925800000   1   0   0 # h
   1744      1   2  0.100000     8.305060512    25.135941760    25.223600000   0   0   0 # h
   1745      1   2  0.100000   -20.311252488    28.039441760    23.793700000   1   0   0 # h
   1746      1   2  0.100000   -18.712732488    27.501241760    25.494400000   1   0   0 # h
   1747      1   2  0.100000   -20.922509458    30.146502352     0.158275750   1   0   0 # h
   1748      1   2  0.100000   -22.933532488    29.745541760    26.632900000   1   0   0 # h
   1749      1   2  0.100000   -23.815602488    29.326441760    21.273700000   1   0   0 # h
   1750      1   2  0.100000   -22.661412488    29.980641760    19.313500000   1   0   0 # h
   1751      1   2  0.100000   -10.924088675    15.662500000    21.758500000   1   0   0 # h
   1752      1   2  0.100000   -12.177504338    15.353700000    23.692700000   1   0   0 # h
   1753      1   2  0.100000   -21.971962488    26.228941760    17.569200000   1   0   0 # h
   1754      1   2  0.100000   -21.694322488    28.538241760    17.743200000   1   0   0 # h
   1755      1   2  0.100000   -18.786542488    28.004041760    20.804600000   1   0   0 # h
   1756      1   2  0.100000   -18.892872488    25.657341760    20.462500000   1   0   0 # h
   1757      1   2  0.100000   -10.674466826    17.349881760    19.081700000   1   0   0 # h
   1758      1   2  0.100000     7.905738512    18.349921760    19.750300000   0   0   0 # h
   1759      1   2  0.100000     1.184057512    30.025241760    20.388500000   0   0   0 # h
   1760      1   2  0.100000   -17.314176826    28.966941760    19.741800000   1   0   0 # h
   1761      1   2  0.100000   -18.759982488    29.341741760    16.773500000   1   0   0 # h
   1762      1   2  0.100000   -19.111672488    30.204841760    14.548100000   1   0   0 # h
   1763      1   2  0.100000   -13.768012488    17.353181760    16.084600000   1   0   0 # h
   1764      1   2  0.100000   -13.112212488    16.774881760    18.290000000   1   0   0 # h
   1765      1   1  0.000000   -17.263592488    26.366941760     5.024570000   1   0   0 # cp
   1766      1   1 -0.100000   -17.783782488    25.315231760     5.733540000   1   0   0 # cp
   1767      1   1 -0.100000   -19.108622488    25.259331760     6.018190000   1   0   0 # cp
   1768      1   1  0.000000   -19.932042488    26.325941760     5.745720000   1   0   0 # cp
   1769      1   1 -0.100000   -19.338322488    27.502541760     5.282320000   1   0   0 # cp
   1770      1   1 -0.100000   -18.047672488    27.481141760     4.866310000   1   0   0 # cp
   1771      1   2  0.100000   -17.190482488    24.475151760     6.039970000   1   0   0 # h
   1772      1   2  0.100000   -19.519382488    24.355791760     6.473960000   1   0   0 # h
   1773      1   2  0.100000   -19.914492488    28.379641760     5.085600000   1   0   0 # h
   1774      1   2  0.100000   -17.665806826    28.355341760     4.316880000   1   0   0 # h
   1775      1   1 -0.100000   -23.401132488    27.952041760     5.929000000   1   0   0 # cp
   1776      1   1  0.000000   -22.355462488    27.402741760     5.201750000   1   0   0 # cp
   1777      1   1 -0.100000   -22.231092488    27.764741760     3.872610000   1   0   0 # cp
   1778      1   1 -0.100000   -23.294599458    28.255502352     3.199375750   1   0   0 # cp
   1779      1   1  0.000000     8.603278512    28.626241760     3.877250000   0   0   0 # cp
   1780      1   1 -0.100000     8.641215512    28.633741760     5.270450000   0   0   0 # cp
   1781      1   3  0.000000   -21.501502488    26.145541760     5.832610000   1   0   0 # c
   1782      1   1  0.000000   -21.774272488    25.684041760     7.386320000   1   0   0 # cp
   1783      1   1 -0.100000    11.071727512    24.336561760     7.666320000   0   0   0 # cp
   1784      1   1 -0.100000    10.579937512    23.899691760     8.875090000   0   0   0 # cp
   1785      1   1  0.000000    10.298007512    24.787091760     9.891220000   0   0   0 # cp
   1786      1   1 -0.100000   -22.298092488    26.080841760     9.709770000   1   0   0 # cp
   1787      1   1 -0.100000   -21.858372488    26.564141760     8.473800000   1   0   0 # cp
   1788      1   1 -0.100000     9.487277512    24.749341760     4.911520000   0   0   0 # cp
   1789      1   1 -0.100000     8.814542512    24.116001760     3.896990000   0   0   0 # cp
   1790      1   1  0.000000     9.534860542    23.666282352     2.793875750   0   0   0 # cp
   1791      1   1 -0.100000    10.907050542    23.721052352     2.848375750   0   0   0 # cp
   1792      1   1 -0.100000   -21.474762488    24.454621760     3.810630000   1   0   0 # cp
   1793      1   1  0.000000   -22.177302488    25.014431760     4.854330000   1   0   0 # cp
   1794      1   3  0.000000     8.682549542    23.069532352     1.597875750   0   0   0 # c
   1795      1   1  0.000000     5.325110144    25.250331393    -0.087989138   0   0   1 # cp
   1796      1   1 -0.100000     6.372090542    25.917382352     0.503775750   0   0   0 # cp
   1797      1   1 -0.100000     7.323750542    25.234572352     1.186075750   0   0   0 # cp
   1798      1   1  0.000000     7.325420542    23.840222352     1.204575750   0   0   0 # cp
   1799      1   1 -0.100000     6.258300542    23.146832352     0.606475750   0   0   0 # cp
   1800      1   1 -0.100000     5.242050542    23.879062352     0.001675750   0   0   0 # cp
   1801      1   1  0.000000     8.418113342    21.632372352     2.233575750   0   0   0 # cp
   1802      1   1 -0.100000     9.300002542    20.583212352     2.065175750   0   0   0 # cp
   1803      1   1 -0.100000     9.041331542    19.350742352     2.589175750   0   0   0 # cp
   1804      1   1  0.000000     7.972998542    19.179892352     3.420875750   0   0   0 # cp
   1805      1   1 -0.100000     7.151525512    20.213791760     3.705350000   0   0   0 # cp
   1806      1   1 -0.100000     7.372010542    21.427252352     3.104875750   0   0   0 # cp
   1807      1   1 -0.100000     8.908971512    21.397401760    27.441400000   0   0   0 # cp
   1808      1   1 -0.100000     9.513447512    21.470511760    26.210900000   0   0   0 # cp
   1809      1   1  0.000000    10.279597512    22.531531760    25.841500000   0   0   0 # cp
   1810      1   1 -0.100000    10.442267512    23.559971760    26.741800000   0   0   0 # cp
   1811      1   1 -0.100000    10.192010144    24.261701393    -0.177989138   0   0   1 # cp
   1812      1   1  0.000000     9.446110542    23.141922352     0.203775750   0   0   0 # cp
   1813      1   2  0.100000   -23.577262488    27.686341760     6.963800000   1   0   0 # h
   1814      1   2  0.100000   -21.405969458    27.379102352     3.266775750   1   0   0 # h
   1815      1   2  0.100000   -23.260699458    28.283202352     2.109975750   1   0   0 # h
   1816      1   2  0.100000     7.764732512    29.023741760     5.769270000   0   0   0 # h
   1817      1   2  0.100000    11.243817512    23.600351760     6.893780000   0   0   0 # h
   1818      1   2  0.100000    10.386727512    22.835491760     8.906980000   0   0   0 # h
   1819      1   2  0.100000   -22.383002488    26.787041760    10.503400000   1   0   0 # h
   1820      1   2  0.100000   -21.632142488    27.621741760     8.371500000   1   0   0 # h
   1821      1   2  0.100000     8.901860512    25.184881760     5.672010000   0   0   0 # h
   1822      1   2  0.100000     7.749091512    24.058301760     3.955710000   0   0   0 # h
   1823      1   2  0.100000    11.466410542    23.253342352     2.082875750   0   0   0 # h
   1824      1   2  0.100000   -20.423512488    24.578661760     3.721300000   1   0   0 # h
   1825      1   2  0.100000     6.494790542    26.998602352     0.379275750   0   0   0 # h
   1826      1   2  0.100000     8.122223542    25.780752352     1.664675750   0   0   0 # h
   1827      1   2  0.100000     6.233360542    22.065722352     0.487375750   0   0   0 # h
   1828      1   2  0.100000     4.452400144    23.342781393    -0.508989138   0   0   1 # h
   1829      1   2  0.100000    10.173090542    20.710602352     1.487075750   0   0   0 # h
   1830      1   2  0.100000     9.744670542    18.518992352     2.447175750   0   0   0 # h
   1831      1   2  0.100000     6.371147512    20.145551760     4.452790000   0   0   0 # h
   1832      1   2  0.100000     6.666550542    22.217472352     3.330375750   0   0   0 # h
   1833      1   2  0.100000     8.586209144    21.353141393    -0.502389138   0   0   1 # h
   1834      1   2  0.100000     9.280087512    20.665311760    25.486200000   0   0   0 # h
   1835      1   2  0.100000   -22.023792488    24.443561760    26.517800000   1   0   0 # h
   1836      1   2  0.100000    10.339870542    25.068312352     0.510975750   0   0   0 # h
   1837      1   1  0.000000   -18.101282488    17.170021760    19.430400000   1   0   0 # cp
   1838      1   1 -0.100000   -16.946272488    16.968131760    18.729700000   1   0   0 # cp
   1839      1   1 -0.100000   -15.979952488    17.919931760    18.668100000   1   0   0 # cp
   1840      1   1  0.000000   -16.183832488    19.190841760    19.191300000   1   0   0 # cp
   1841      1   1 -0.100000   -17.424142488    19.437771760    19.788000000   1   0   0 # cp
   1842      1   1 -0.100000   -18.320572488    18.418731760    19.999200000   1   0   0 # cp
   1843      1   2  0.100000   -16.717466338    15.961600000    18.373300000   1   0   0 # h
   1844      1   2  0.100000   -15.035592488    17.651681760    18.227600000   1   0   0 # h
   1845      1   2  0.100000   -17.592542488    20.361371760    20.314900000   1   0   0 # h
   1846      1   2  0.100000    13.809617512    18.612601760    20.577500000   0   0   0 # h
   1847      1   1 -0.100000   -16.205152488    22.395491760    19.048500000   1   0   0 # cp
   1848      1   1  0.000000   -15.290212488    21.692341760    19.818500000   1   0   0 # cp
   1849      1   1 -0.100000   -14.558456826    22.390891760    20.776900000   1   0   0 # cp
   1850      1   1 -0.100000   -14.691256826    23.743981760    20.897800000   1   0   0 # cp
   1851      1   1  0.000000   -15.559486826    24.428051760    20.109900000   1   0   0 # cp
   1852      1   1 -0.100000   -16.307072488    23.747371760    19.184300000   1   0   0 # cp
   1853      1   3  0.000000   -14.931132488    20.164271760    19.417300000   1   0   0 # c
   1854      1   1  0.000000   -13.976112488    20.427501760    18.150500000   1   0   0 # cp
   1855      1   1 -0.100000   -12.779776826    21.089121760    18.285300000   1   0   0 # cp
   1856      1   1 -0.100000     4.470937512    21.462871760    17.192700000   0   0   0 # cp
   1857      1   1  0.000000   -12.375256826    21.049521760    15.938300000   1   0   0 # cp
   1858      1   1 -0.100000   -13.523096826    20.321341760    15.778800000   1   0   0 # cp
   1859      1   1 -0.100000   -14.368712488    20.109641760    16.856200000   1   0   0 # cp
   1860      1   1 -0.100000   -14.723412488    19.383761760    21.907400000   1   0   0 # cp
   1861      1   1 -0.100000   -13.915012488    19.227711760    22.994900000   1   0   0 # cp
   1862      1   1  0.000000   -12.530116826    19.170921760    22.859900000   1   0   0 # cp
   1863      1   1 -0.100000   -12.090536826    18.897751760    21.563200000   1   0   0 # cp
   1864      1   1 -0.100000   -12.932886826    18.886131760    20.496300000   1   0   0 # cp
   1865      1   1  0.000000   -14.205412488    19.400501760    20.635300000   1   0   0 # cp
   1866      1   3  0.000000   -11.557686826    19.600171760    24.059500000   1   0   0 # c
   1867      1   1  0.000000     4.640117512    23.911601760    25.004000000   0   0   0 # cp
   1868      1   1 -0.100000     3.512327512    23.203191760    24.634600000   0   0   0 # cp
   1869      1   1 -0.100000   -12.920866826    21.869061760    24.356800000   1   0   0 # cp
   1870      1   1  0.000000     4.788447512    21.165581760    24.354400000   0   0   0 # cp
   1871      1   1 -0.100000     5.914047512    21.926571760    24.675900000   0   0   0 # cp
   1872      1   1 -0.100000     5.828247512    23.255641760    24.989600000   0   0   0 # cp
   1873      1   1  0.000000     6.452047512    19.090401760    23.639100000   0   0   0 # cp
   1874      1   1 -0.100000     6.874577512    17.804661760    23.952700000   0   0   0 # cp
   1875      1   1 -0.100000     8.048620912    17.316031760    23.489900000   0   0   0 # cp
   1876      1   1  0.000000     8.877563512    18.104321760    22.726400000   0   0   0 # cp
   1877      1   1 -0.100000     8.521852512    19.399311760    22.467100000   0   0   0 # cp
   1878      1   1 -0.100000     7.288526512    19.863661760    22.844400000   0   0   0 # cp
   1879      1   1 -0.100000     5.576147512    19.214151760    26.531500000   0   0   0 # cp
   1880      1   1 -0.100000   -10.746874194    19.425171393    -0.430289138   1   0   1 # cp
   1881      1   1  0.000000   -11.902514194    18.728221393    -0.141489138   1   0   1 # cp
   1882      1   1 -0.100000   -13.090912488    17.634331760    27.044500000   1   0   0 # cp
   1883      1   1 -0.100000   -12.856812488    18.071361760    25.771900000   1   0   0 # cp
   1884      1   1  0.000000   -11.832966826    18.976991760    25.497000000   1   0   0 # cp
   1885      1   2  0.100000   -16.747142488    21.888051760    18.264900000   1   0   0 # h
   1886      1   2  0.100000   -13.808646826    21.896051760    21.365500000   1   0   0 # h
   1887      1   2  0.100000   -14.062426826    24.244451760    21.591700000   1   0   0 # h
   1888      1   2  0.100000   -16.948082488    24.294231760    18.513500000   1   0   0 # h
   1889      1   2  0.100000   -12.441576826    21.415421760    19.254400000   1   0   0 # h
   1890      1   2  0.100000     5.336867512    22.055941760    17.386800000   0   0   0 # h
   1891      1   2  0.100000   -13.789812488    19.870081760    14.850400000   1   0   0 # h
   1892      1   2  0.100000   -15.316792488    19.636091760    16.661800000   1   0   0 # h
   1893      1   2  0.100000   -15.767952488    19.629001760    22.046100000   1   0   0 # h
   1894      1   2  0.100000   -14.405512488    19.412811760    23.950100000   1   0   0 # h
   1895      1   2  0.100000   -11.061296826    18.751091760    21.312100000   1   0   0 # h
   1896      1   2  0.100000   -12.494606826    18.709471760    19.523000000   1   0   0 # h
   1897      1   2  0.100000   -13.973236826    23.658701760    24.622300000   1   0   0 # h
   1898      1   2  0.100000   -13.888386826    21.407641760    24.305700000   1   0   0 # h
   1899      1   2  0.100000     6.901107512    21.499131760    24.847500000   0   0   0 # h
   1900      1   2  0.100000     6.739757512    23.701341760    25.353300000   0   0   0 # h
   1901      1   2  0.100000   -10.266506826    17.143031760    24.534300000   1   0   0 # h
   1902      1   2  0.100000     8.303895662    16.263300000    23.696400000   0   0   0 # h
   1903      1   2  0.100000     9.124807512    20.054651760    21.871300000   0   0   0 # h
   1904      1   2  0.100000     6.946967512    20.834781760    22.472800000   0   0   0 # h
   1905      1   2  0.100000     6.415827512    19.861911760    26.384400000   0   0   0 # h
   1906      1   2  0.100000     6.504700542    19.687542352     0.335275750   0   0   0 # h
   1907      1   2  0.100000   -13.983612488    17.041861760    27.228800000   1   0   0 # h
   1908      1   2  0.100000   -13.477212488    17.679561760    25.019100000   1   0   0 # h
   1909      1   1  0.000000   -18.517419458    26.375602352     0.861775750   1   0   0 # cp
   1910      1   1 -0.100000   -19.507329458    25.542972352     0.483475750   1   0   0 # cp
   1911      1   1 -0.100000   -19.325789458    24.180642352     0.569575750   1   0   0 # cp
   1912      1   1  0.000000   -18.098499458    23.643202352     0.996275750   1   0   0 # cp
   1913      1   1 -0.100000   -17.068919458    24.532852352     1.237875750   1   0   0 # cp
   1914      1   1 -0.100000   -17.281009458    25.880442352     1.148375750   1   0   0 # cp
   1915      1   2  0.100000   -20.453269458    25.994732352     0.204775750   1   0   0 # h
   1916      1   2  0.100000   -20.166569458    23.532702352     0.391475750   1   0   0 # h
   1917      1   2  0.100000   -16.092989458    24.210222352     1.566475750   1   0   0 # h
   1918      1   2  0.100000   -16.411103795    26.492702352     1.433075750   1   0   0 # h
   1919      1   1 -0.100000   -15.408389458    21.767512352     0.659475750   1   0   0 # cp
   1920      1   1  0.000000   -16.464829458    21.441172352     1.499275750   1   0   0 # cp
   1921      1   1 -0.100000   -16.183959458    20.521032352     2.511375750   1   0   0 # cp
   1922      1   1 -0.100000   -14.925119458    19.989372352     2.670875750   1   0   0 # cp
   1923      1   1  0.000000   -13.903789458    20.362812352     1.861675750   1   0   0 # cp
   1924      1   1 -0.100000   -14.152889458    21.238412352     0.818775750   1   0   0 # cp
   1925      1   3  0.000000   -17.928869458    22.034942352     1.252975750   1   0   0 # c
   1926      1   1  0.000000   -18.427619458    21.037362352     0.090475750   1   0   0 # cp
   1927      1   1 -0.100000   -18.611079458    19.662142352     0.328075750   1   0   0 # cp
   1928      1   1 -0.100000    13.776517512    18.034461760    27.469700000   0   0   0 # cp
   1929      1   1  0.000000    13.657977512    18.545321760    26.201400000   0   0   0 # cp
   1930      1   1 -0.100000   -19.217932488    19.877161760    25.961700000   1   0   0 # cp
   1931      1   1 -0.100000   -18.871122488    20.723251760    26.982300000   1   0   0 # cp
   1932      1   1 -0.100000   -18.342852488    22.472511760     3.722960000   1   0   0 # cp
   1933      1   1 -0.100000   -18.736202488    21.974441760     4.941320000   1   0   0 # cp
   1934      1   1  0.000000   -19.673362488    20.963791760     5.031790000   1   0   0 # cp
   1935      1   1 -0.100000    12.720427512    20.613291760     3.840030000   0   0   0 # cp
   1936      1   1 -0.100000   -19.940119458    21.148712352     2.641175750   1   0   0 # cp
   1937      1   1  0.000000   -18.796719458    21.919282352     2.555875750   1   0   0 # cp
   1938      1   3  0.000000    13.247107512    19.980931760     6.333350000   0   0   0 # c
   1939      1   1  0.000000   -15.958602488    17.837151760     6.480140000   1   0   0 # cp
   1940      1   1 -0.100000   -17.012872488    17.244231760     5.801000000   1   0   0 # cp
   1941      1   1 -0.100000   -18.205252488    17.920671760     5.665260000   1   0   0 # cp
   1942      1   1  0.000000   -18.383662488    19.148271760     6.275990000   1   0   0 # cp
   1943      1   1 -0.100000   -17.280522488    19.781111760     6.820490000   1   0   0 # cp
   1944      1   1 -0.100000   -16.067962488    19.139111760     6.871460000   1   0   0 # cp
   1945      1   1  0.000000    11.826477512    19.334581760     6.300460000   0   0   0 # cp
   1946      1   1 -0.100000    10.698907512    20.146241760     6.356660000   0   0   0 # cp
   1947      1   1 -0.100000     9.437127512    19.641791760     6.249920000   0   0   0 # cp
   1948      1   1  0.000000     9.267507512    18.321471760     6.019020000   0   0   0 # cp
   1949      1   1 -0.100000    10.322407512    17.478761760     6.026440000   0   0   0 # cp
   1950      1   1 -0.100000    11.591847512    17.964761760     6.228350000   0   0   0 # cp
   1951      1   1 -0.100000    13.064057512    19.516041760     8.878010000   0   0   0 # cp
   1952      1   1 -0.100000    13.204697512    19.789641760    10.206400000   0   0   0 # cp
   1953      1   1  0.000000   -19.413092488    21.018401760    10.609400000   1   0   0 # cp
   1954      1   1 -0.100000   -19.332692488    22.038151760     9.675970000   1   0   0 # cp
   1955      1   1 -0.100000   -19.590062488    21.775171760     8.336740000   1   0   0 # cp
   1956      1   1  0.000000    13.173557512    20.497661760     7.892980000   0   0   0 # cp
   1957      1   2  0.100000   -15.573639856    22.413221393    -0.189289138   1   0   1 # h
   1958      1   2  0.100000   -16.972839458    20.172382352     3.156575750   1   0   0 # h
   1959      1   2  0.100000   -14.815379458    19.234372352     3.435975750   1   0   0 # h
   1960      1   2  0.100000   -13.359623795    21.520582352     0.137675750   1   0   0 # h
   1961      1   2  0.100000   -18.475449458    19.208272352     1.303475750   1   0   0 # h
   1962      1   2  0.100000    13.844160144    17.762311393    -0.506189138   0   0   1 # h
   1963      1   2  0.100000   -19.325262488    20.269901760    24.959400000   1   0   0 # h
   1964      1   2  0.100000   -18.651622488    21.751621760    26.744200000   1   0   0 # h
   1965      1   2  0.100000   -17.485972488    23.128241760     3.671080000   1   0   0 # h
   1966      1   2  0.100000   -18.221512488    22.271841760     5.842090000   1   0   0 # h
   1967      1   2  0.100000    11.945867512    19.875491760     3.811980000   0   0   0 # h
   1968      1   2  0.100000    12.558240542    20.824462352     1.768875750   0   0   0 # h
   1969      1   2  0.100000   -16.949138338    16.219400000     5.459750000   1   0   0 # h
   1970      1   2  0.100000    14.025997512    17.444641760     5.106000000   0   0   0 # h
   1971      1   2  0.100000   -17.322142488    20.753541760     7.279310000   1   0   0 # h
   1972      1   2  0.100000   -15.252722488    19.605031760     7.372410000   1   0   0 # h
   1973      1   2  0.100000    10.816187512    21.215561760     6.349980000   0   0   0 # h
   1974      1   2  0.100000     8.597683512    20.306301760     6.221660000   0   0   0 # h
   1975      1   2  0.100000    10.187755662    16.430700000     5.848840000   0   0   0 # h
   1976      1   2  0.100000    12.403787512    17.264341760     6.238390000   0   0   0 # h
   1977      1   2  0.100000    12.945467512    18.472401760     8.580670000   0   0   0 # h
   1978      1   2  0.100000    13.139767512    18.952001760    10.903500000   0   0   0 # h
   1979      1   2  0.100000   -18.955022488    23.012901760     9.960180000   1   0   0 # h
   1980      1   2  0.100000   -19.388592488    22.560061760     7.638240000   1   0   0 # h
   1981      1   1  0.000000     6.509667512    23.553771760    14.849000000   0   0   0 # cp
   1982      1   1 -0.100000     5.396497512    24.358751760    15.063800000   0   0   0 # cp
   1983      1   1 -0.100000     5.455817512    25.716241760    14.845500000   0   0   0 # cp
   1984      1   1  0.000000     6.616517512    26.315341760    14.426900000   0   0   0 # cp
   1985      1   1 -0.100000     7.743210512    25.498141760    14.242900000   0   0   0 # cp
   1986      1   1 -0.100000     7.709118512    24.133491760    14.483800000   0   0   0 # cp
   1987      1   2  0.100000     4.453477512    23.893331760    15.292800000   0   0   0 # h
   1988      1   2  0.100000     4.566317512    26.321441760    14.999500000   0   0   0 # h
   1989      1   2  0.100000     8.680867512    25.889341760    13.891200000   0   0   0 # h
   1990      1   2  0.100000     8.545210512    23.516941760    14.227600000   0   0   0 # h
   1991      1   1 -0.100000   -23.881552488    28.389841760    14.417000000   1   0   0 # cp
   1992      1   1  0.000000     7.945282512    28.668341760    13.772200000   0   0   0 # cp
   1993      1   1 -0.100000     7.969381512    29.723941760    12.844600000   0   0   0 # cp
   1994      1   1 -0.100000    -7.087320895    -0.592669919    12.512900000   1   1   0 # cp
   1995      1   1  0.000000   -22.715982488    30.042241760    13.149100000   1   0   0 # cp
   1996      1   1 -0.100000   -22.716262488    29.066941760    14.111600000   1   0   0 # cp
   1997      1   3  0.000000     6.564597512    27.909941760    14.130300000   0   0   0 # c
   1998      1   1  0.000000     6.025277512    28.814141760    15.367700000   0   0   0 # cp
   1999      1   1 -0.100000     5.726797512    30.167341760    15.213700000   0   0   0 # cp
   2000      1   1 -0.100000    13.672265662    15.473000000    16.271400000   0   0   0 # cp
   2001      1   1  0.000000    21.926739105    -0.597469919    17.511300000   0   1   0 # cp
   2002      1   1 -0.100000     5.518937512    29.073341760    17.688000000   0   0   0 # cp
   2003      1   1 -0.100000     6.004427512    28.334441760    16.659800000   0   0   0 # cp
   2004      1   1 -0.100000     6.128597512    27.290941760    11.697200000   0   0   0 # cp
   2005      1   1 -0.100000     5.694857512    27.651841760    10.439600000   0   0   0 # cp
   2006      1   1  0.000000     4.714537512    28.598141760    10.265600000   0   0   0 # cp
   2007      1   1 -0.100000     4.069657512    29.017841760    11.441500000   0   0   0 # cp
   2008      1   1 -0.100000     4.473417512    28.597341760    12.685900000   0   0   0 # cp
   2009      1   1  0.000000     5.627227512    27.879741760    12.840300000   0   0   0 # cp
   2010      1   3  0.000000     4.620007512    29.395341760     8.878420000   0   0   0 # c
   2011      1   1  0.000000   -16.176943338    16.053300000     8.939480000   1   0   0 # cp
   2012      1   1 -0.100000   -24.695081488    30.246041760     8.473420000   1   0   0 # cp
   2013      1   1 -0.100000     7.104957512    29.679341760     8.436480000   0   0   0 # cp
   2014      1   1  0.000000     5.972017512    30.290841760     8.937720000   0   0   0 # cp
   2015      1   1 -0.100000    14.556655662    16.020700000     9.564440000   0   0   0 # cp
   2016      1   1 -0.100000   -17.259935338    16.683700000     9.544090000   1   0   0 # cp
   2017      1   1  0.000000     3.144137512    29.985141760     8.878330000   0   0   0 # cp
   2018      1   1 -0.100000     2.071427512    29.082341760     8.903300000   0   0   0 # cp
   2019      1   1 -0.100000     0.807137512    29.556241760     9.018800000   0   0   0 # cp
   2020      1   1  0.000000     8.943995662    15.431100000     9.062840000   0   0   0 # cp
   2021      1   1 -0.100000     9.983695662    16.308000000     9.011470000   0   0   0 # cp
   2022      1   1 -0.100000    11.285605662    15.855600000     8.946270000   0   0   0 # cp
   2023      1   1 -0.100000     4.345337512    29.584341760     6.338470000   0   0   0 # cp
   2024      1   1 -0.100000     4.734297512    29.264541760     5.075390000   0   0   0 # cp
   2025      1   1  0.000000     5.344257512    28.080041760     4.794100000   0   0   0 # cp
   2026      1   1 -0.100000     5.502877512    27.172341760     5.806770000   0   0   0 # cp
   2027      1   1 -0.100000     5.141667512    27.488141760     7.087480000   0   0   0 # cp
   2028      1   1  0.000000     4.647617512    28.739641760     7.392370000   0   0   0 # cp
   2029      1   2  0.100000   -23.887962488    27.669141760    15.223600000   1   0   0 # h
   2030      1   2  0.100000     7.091137512    30.029841760    12.330700000   0   0   0 # h
   2031      1   2  0.100000   -15.531874338    15.637100000    11.743700000   1   0   0 # h
   2032      1   2  0.100000   -21.846672488    28.783941760    14.649300000   1   0   0 # h
   2033      1   2  0.100000    14.170335662    15.141600000    14.239200000   0   0   0 # h
   2034      1   2  0.100000    13.378175662    16.516300000    16.087100000   0   0   0 # h
   2035      1   2  0.100000     5.440617512    28.659241760    18.676700000   0   0   0 # h
   2036      1   2  0.100000     6.354487512    27.328141760    16.867900000   0   0   0 # h
   2037      1   2  0.100000     7.022057512    26.678841760    11.745500000   0   0   0 # h
   2038      1   2  0.100000     6.234467512    27.193341760     9.632190000   0   0   0 # h
   2039      1   2  0.100000     3.261597512    29.759141760    11.392700000   0   0   0 # h
   2040      1   2  0.100000     3.984077512    28.969341760    13.585000000   0   0   0 # h
   2041      1   2  0.100000   -23.874282488    29.754341760     7.957440000   1   0   0 # h
   2042      1   2  0.100000     7.108987512    28.690941760     8.055840000   0   0   0 # h
   2043      1   2  0.100000    13.751405662    16.473300000    10.091300000   0   0   0 # h
   2044      1   2  0.100000   -17.185452488    17.699941760     9.948800000   1   0   0 # h
   2045      1   2  0.100000     2.220427512    28.020841760     8.881560000   0   0   0 # h
   2046      1   2  0.100000   -16.553236826    28.893141760     9.048820000   1   0   0 # h
   2047      1   2  0.100000     9.717417512    17.344561760     9.138250000   0   0   0 # h
   2048      1   2  0.100000    12.039085662    16.578200000     8.918150000   0   0   0 # h
   2049      1   2  0.100000    20.720719105    -0.379069919     6.418860000   0   1   0 # h
   2050      1   2  0.100000     4.669187512    30.035041760     4.331930000   0   0   0 # h
   2051      1   2  0.100000     5.980387512    26.199641760     5.653310000   0   0   0 # h
   2052      1   2  0.100000     5.386547512    26.740541760     7.844010000   0   0   0 # h
   2053      1   4 -0.200000   -14.762412488    17.047691760     6.967090000   1   0   0 # c2
   2054      1   4 -0.200000   -14.893844338    16.774200000     8.517400000   1   0   0 # c2
   2055      1   2  0.100000   -14.703384338    16.125600000     6.362080000   1   0   0 # h
   2056      1   2  0.100000   -13.804212488    17.591501760     6.766470000   1   0   0 # h
   2057      1   2  0.100000   -14.830912488    17.755151760     9.054820000   1   0   0 # h
   2058      1   2  0.100000   -14.009314338    16.167500000     8.849900000   1   0   0 # h
   2059      1   4 -0.200000    12.949445662    15.662600000    18.693000000   0   0   0 # c2
   2060      1   4 -0.200000    13.968315662    16.049600000    19.814400000   0   0   0 # c2
   2061      1   2  0.100000    12.144645662    15.040300000    19.132900000   0   0   0 # h
   2062      1   2  0.100000    12.447375662    16.595400000    18.331400000   0   0   0 # h
   2063      1   2  0.100000    14.533875662    15.147700000    20.152800000   0   0   0 # h
   2064      1   2  0.100000    13.366995662    16.394000000    20.695900000   0   0   0 # h
   2065      1   4 -0.200000     5.103057512    21.268001760    14.761800000   0   0   0 # c2
   2066      1   4 -0.200000     6.449727512    22.018621760    14.959900000   0   0   0 # c2
   2067      1   2  0.100000     5.316397512    20.241341760    14.376500000   0   0   0 # h
   2068      1   2  0.100000     4.571987512    21.725611760    13.925200000   0   0   0 # h
   2069      1   2  0.100000     6.986757512    21.728991760    15.888100000   0   0   0 # h
   2070      1   2  0.100000     7.067007512    21.621011760    14.154900000   0   0   0 # h
   2071      1   4 -0.200000   -12.178903795    18.470202352     1.328275750   1   0   0 # c2
   2072      1   4 -0.200000   -12.502293795    19.740972352     2.149975750   1   0   0 # c2
   2073      1   2  0.100000   -12.999489458    17.698872352     1.459175750   1   0   0 # h
   2074      1   2  0.100000   -11.229493795    18.009102352     1.726275750   1   0   0 # h
   2075      1   2  0.100000   -11.741823795    20.501412352     2.059075750   1   0   0 # h
   2076      1   2  0.100000   -12.443073795    19.438062352     3.206775750   1   0   0 # h
   2077      1   4 -0.200000     7.883831512    17.817251760     5.656120000   0   0   0 # c2
   2078      1   4 -0.200000     7.650098512    17.838701760     4.104800000   0   0   0 # c2
   2079      1   2  0.100000     7.741715662    16.836000000     6.091710000   0   0   0 # h
   2080      1   2  0.100000     7.135553512    18.500951760     6.118690000   0   0   0 # h
   2081      1   2  0.100000    -9.924646826    17.572811760     3.852840000   1   0   0 # h
   2082      1   2  0.100000     8.259498693    17.044460592     3.647475750   0   0   0 # h
   2083      1   4 -0.200000     6.094310542    27.909302352     3.457875750   0   0   0 # c2
   2084      1   4 -0.200000     7.253490542    28.875602352     3.143075750   0   0   0 # c2
   2085      1   2  0.100000     5.349000542    27.981502352     2.613975750   0   0   0 # h
   2086      1   2  0.100000     6.436800542    26.849202352     3.381275750   0   0   0 # h
   2087      1   2  0.100000     6.968000542    29.923802352     3.356075750   0   0   0 # h
   2088      1   2  0.100000     7.410840542    28.859002352     2.043875750   0   0   0 # h
   2089      1   4 -0.200000     4.046637512    25.200921760    27.133800000   0   0   0 # c2
   2090      1   4 -0.200000     4.554177512    25.284621760    25.685500000   0   0   0 # c2
   2091      1   2  0.100000     3.088097512    24.683571760    27.205600000   0   0   0 # h
   2092      1   2  0.100000     3.823027512    26.228541760    27.527700000   0   0   0 # h
   2093      1   2  0.100000     3.746557512    25.805741760    25.093100000   0   0   0 # h
   2094      1   2  0.100000     5.483667512    25.901541760    25.562600000   0   0   0 # h
   2095      1   4 -0.200000    13.137507512    17.693571760    25.053400000   0   0   0 # c2
   2096      1   4 -0.200000    14.122057512    17.472981760    23.901000000   0   0   0 # c2
   2097      1   2  0.100000    12.748537512    16.740561760    25.453200000   0   0   0 # h
   2098      1   2  0.100000    12.229767512    18.177861760    24.657900000   0   0   0 # h
   2099      1   2  0.100000    13.520187512    17.195331760    23.031000000   0   0   0 # h
   2100      1   2  0.100000   -18.445002488    18.421951760    23.605700000   1   0   0 # h
   2101      1   4 -0.200000   -18.478889856    28.821601393    -0.087089138   1   0   1 # c2
   2102      1   4 -0.200000   -18.830199458    27.853602352     1.068775750   1   0   0 # c2
   2103      1   2  0.100000   -17.882336826    27.696641760    27.576200000   1   0   0 # h
   2104      1   2  0.100000   -18.212283795    29.773802352     0.387275750   1   0   0 # h
   2105      1   2  0.100000   -18.230059458    28.197702352     1.954075750   1   0   0 # h
   2106      1   2  0.100000   -19.882419458    27.963902352     1.380375750   1   0   0 # h
   2107      1   4 -0.200000    10.136957512    17.171961760    20.629800000   0   0   0 # c2
   2108      1   4 -0.200000    10.147637512    17.436781760    22.154900000   0   0   0 # c2
   2109      1   2  0.100000    10.260147512    18.161501760    20.149800000   0   0   0 # h
   2110      1   2  0.100000    11.040955662    16.596100000    20.352400000   0   0   0 # h
   2111      1   2  0.100000    11.003687512    18.125931760    22.339400000   0   0   0 # h
   2112      1   2  0.100000    10.446645662    16.504700000    22.688500000   0   0   0 # h
   2113      1   4 -0.200000    10.700287512    22.700051760    24.387400000   0   0   0 # c2
   2114      1   4 -0.200000     9.605837512    23.297731760    23.436600000   0   0   0 # c2
   2115      1   2  0.100000   -21.412632488    23.328871760    24.372800000   1   0   0 # h
   2116      1   2  0.100000    11.018097512    21.724741760    23.976900000   0   0   0 # h
   2117      1   2  0.100000     9.813947512    22.945031760    22.424500000   0   0   0 # h
   2118      1   2  0.100000     8.620424512    22.897141760    23.736500000   0   0   0 # h
   2119      1   4 -0.200000   -12.691464338    16.512700000    13.694800000   1   0   0 # c2
   2120      1   4 -0.200000   -13.041854338    15.312600000    12.773500000   1   0   0 # c2
   2121      1   2  0.100000   -13.524112488    17.236141760    13.709500000   1   0   0 # h
   2122      1   2  0.100000   -11.831486826    17.065431760    13.285500000   1   0   0 # h
   2123      1   2  0.100000   -13.108044338    15.639500000    11.739500000   1   0   0 # h
   2124      1   2  0.100000   -20.621052488    30.083841760    12.810500000   1   0   0 # h
   2125      1   4 -0.200000     9.721047512    24.340791760    11.246500000   0   0   0 # c2
   2126      1   4 -0.200000     8.867343512    23.016121760    11.287900000   0   0   0 # c2
   2127      1   2  0.100000    10.581607512    24.203121760    11.919600000   0   0   0 # h
   2128      1   2  0.100000     9.187877512    25.201561760    11.683200000   0   0   0 # h
   2129      1   2  0.100000     9.349257512    22.246851760    10.668800000   0   0   0 # h
   2130      1   2  0.100000     8.908754512    22.561241760    12.293700000   0   0   0 # h
   2131      1   4 -0.200000   -14.924356826    25.264591760     4.616770000   1   0   0 # c2
   2132      1   4 -0.200000   -15.824686826    26.515341760     4.562510000   1   0   0 # c2
   2133      1   2  0.100000   -14.052116826    25.429191760     3.971270000   1   0   0 # h
   2134      1   2  0.100000   -15.464956826    24.447261760     4.078610000   1   0   0 # h
   2135      1   2  0.100000   -15.802343795    26.932902352     3.541375750   1   0   0 # h
   2136      1   2  0.100000   -15.360166826    27.354041760     5.122850000   1   0   0 # h
   2137      1   4 -0.200000    -9.416108675    16.028500000    10.782900000   1   0   0 # c2
   2138      1   4 -0.200000    -9.036538675    15.863500000     9.280430000   1   0   0 # c2
   2139      1   2  0.100000   -10.443588675    16.356700000    10.839200000   1   0   0 # h
   2140      1   2  0.100000     7.686161512    16.878341760    11.185600000   0   0   0 # h
   2141      1   2  0.100000     7.368035662    16.812900000     8.758490000   0   0   0 # h
   2142      1   2  0.100000    -1.380225233    -0.285169919     8.760980000   1   1   0 # h
   2143      1   4 -0.200000   -18.831932488    21.119921760    12.039300000   1   0   0 # c2
   2144      1   4 -0.200000   -17.642072488    20.156481760    12.329400000   1   0   0 # c2
   2145      1   2  0.100000   -18.492952488    22.136721760    12.278200000   1   0   0 # h
   2146      1   2  0.100000   -19.643182488    20.920251760    12.740300000   1   0   0 # h
   2147      1   2  0.100000   -17.835852488    19.131441760    11.962500000   1   0   0 # h
   2148      1   2  0.100000   -17.558052488    20.072511760    13.418600000   1   0   0 # h
   2149      1   4 -0.200000     2.029347512    26.694541760    19.442000000   0   0   0 # c2
   2150      1   4 -0.200000   -15.634266826    25.972841760    20.155900000   1   0   0 # c2
   2151      1   2  0.100000     2.995087512    26.172641760    19.637000000   0   0   0 # h
   2152      1   2  0.100000     2.132917512    27.706141760    19.873800000   0   0   0 # h
   2153      1   2  0.100000   -16.607396826    26.373141760    19.782200000   1   0   0 # h
   2154      1   2  0.100000   -15.581226826    26.325341760    21.211300000   1   0   0 # h
   2155      1   4 -0.200000   -20.511282488    23.816381760    17.087700000   1   0   0 # c2
   2156      1   4 -0.200000   -20.316632488    24.263241760    18.588600000   1   0   0 # c2
   2157      1   2  0.100000   -20.374352488    22.713741760    17.073200000   1   0   0 # h
   2158      1   2  0.100000   -21.547992488    23.996711760    16.777800000   1   0   0 # h
   2159      1   2  0.100000   -19.326622488    23.908461760    18.866200000   1   0   0 # h
   2160      1   2  0.100000   -20.996272488    23.663101760    19.208800000   1   0   0 # h

Bonds

     1   1      1      2
     2   1      1      6
     3   2      1    506
     4   1      2      3
     5   3      2      7
     6   1      3      4
     7   3      3      8
     8   1      4      5
     9   4      4    557
    10   1      5      6
    11   3      5    549
    12   3      6     10
    13   3    545      9
    14   1     11     12
    15   1     11     16
    16   3     11     49
    17   1     12     13
    18   4     12     17
    19   1     13     14
    20   3     13     50
    21   1     14     15
    22   3     14     51
    23   1     15     16
    24   2     15    524
    25   3     16     52
    26   4    544     17
    27   4     18     17
    28   4     29     17
    29   1     18    559
    30   1     18     23
    31   1     19    558
    32   1     19    560
    33   3     19     53
    34   1     20    559
    35   1     20     21
    36   3     20    594
    37   1     21     22
    38   2     21    511
    39   1     22     23
    40   3     22     55
    41   3     23     56
    42   1     24     25
    43   1     24     29
    44   3     24     57
    45   1     25     26
    46   3     25     58
    47   1     26    567
    48   4     26     30
    49   1     27    566
    50   1     27     28
    51   3     27     59
    52   1     28    569
    53   3     28     60
    54   1     29    568
    55   4     34     30
    56   4     37     30
    57   4     48     30
    58   1     31     32
    59   1     31     36
    60   2     31    535
    61   1     32     33
    62   3     32     61
    63   1     33     34
    64   3     33     62
    65   1     34     35
    66   1     35     36
    67   3     35     63
    68   3     36     64
    69   1     37    578
    70   1     37     42
    71   1     38    577
    72   1     38     39
    73   3     38     65
    74   1     39    580
    75   3     39   1146
    76   1     40    579
    77   1     40     41
    78   2     40   1597
    79   1     41     42
    80   3     41     67
    81   3     42     68
    82   1     43    584
    83   1     43     48
    84   3     43     69
    85   1     44    583
    86   1     44     45
    87   3     44     70
    88   1     45     46
    89   2     45    529
    90   1     46    587
    91   3     46     71
    92   1     47    586
    93   1     47     48
    94   3     47     72
    95   3    560     54
    96   3   1119     66
    97   1     73     74
    98   1     73     78
    99   2     73    476
   100   1     74     75
   101   3     74     79
   102   1     75   1156
   103   3     75     80
   104   1     76   1155
   105   1     76     77
   106   4     76     89
   107   1     77   1158
   108   3     77     81
   109   1     78   1157
   110   3     78     82
   111   1     83     84
   112   1     83     88
   113   3     83    121
   114   1     84     85
   115   4     84     89
   116   1     85     86
   117   3     85    122
   118   1     86     87
   119   3     86    123
   120   1     87     88
   121   2     87    494
   122   3     88    124
   123   4     90     89
   124   4    101     89
   125   1     90     91
   126   1     90     95
   127   1     91     92
   128   3     91    125
   129   1     92     93
   130   3     92    126
   131   1     93     94
   132   2     93    481
   133   1     94     95
   134   3     94    127
   135   3     95    128
   136   1     96     97
   137   1     96    101
   138   3     96    129
   139   1     97   1178
   140   3     97    130
   141   1     98   1177
   142   1     98     99
   143   4     98   1182
   144   1     99    100
   145   3     99    131
   146   1    100   1181
   147   3    100    132
   148   1    101   1180
   149   4   1178    102
   150   4    106    102
   151   4   1189    102
   152   4   1200    102
   153   1    103    104
   154   1    103    108
   155   2    103    536
   156   1    104    105
   157   3    104    133
   158   1    105    106
   159   3    105    134
   160   1    106    107
   161   1    107    108
   162   3    107    135
   163   3    108    136
   164   4    109   1182
   165   1    109    110
   166   1    109   1194
   167   1    110    651
   168   3    110    137
   169   1    111    650
   170   1    111    112
   171   3    111    138
   172   1    112    113
   173   2    112    487
   174   1    113   1734
   175   3    113   1219
   176   1    114   1733
   177   1    114   1189
   178   3    114    140
   179   1    115   1196
   180   1    115   1200
   181   3    115    141
   182   1    116   1195
   183   1    116    117
   184   3    116   1222
   185   1    117    118
   186   2    117    499
   187   1    118    119
   188   3    118    143
   189   1    119    120
   190   3    119    144
   191   1    120   1195
   192   4    120   1182
   193   3   1193    139
   194   3   1196    142
   195   1    145    146
   196   1    145    150
   197   2    145    512
   198   1    146    147
   199   3    146    151
   200   1    147    148
   201   3    147    152
   202   1    148    149
   203   4    148    161
   204   1    149    150
   205   3    149    153
   206   3    150    154
   207   1    155    156
   208   1    155    160
   209   3    155    193
   210   1    156    157
   211   4    156    161
   212   1    157    158
   213   3    157    194
   214   1    158    159
   215   3    158    195
   216   1    159    160
   217   2    159    464
   218   3    160    196
   219   4    162    161
   220   4    173    161
   221   1    162    163
   222   1    162    167
   223   1    163    164
   224   3    163    197
   225   1    164    165
   226   3    164    198
   227   1    165    166
   228   2    165    505
   229   1    166    167
   230   3    166    199
   231   3    167    200
   232   1    168    169
   233   1    168    173
   234   3    168    201
   235   1    169    170
   236   3    169    202
   237   1    170    171
   238   4    170    174
   239   1    171    172
   240   3    171    203
   241   1    172    173
   242   3    172    204
   243   4    178    174
   244   4    181    174
   245   4    192    174
   246   1    175    176
   247   1    175    180
   248   2    175    469
   249   1    176    177
   250   3    176    205
   251   1    177    178
   252   3    177    206
   253   1    178    179
   254   1    179    180
   255   3    179    207
   256   3    180    208
   257   1    181    182
   258   1    181    186
   259   1    182    183
   260   3    182    209
   261   1    183    184
   262   3    183    210
   263   1    184    185
   264   2    184    458
   265   1    185    186
   266   3    185    211
   267   3    186    212
   268   1    187    188
   269   1    187    192
   270   3    187    213
   271   1    188    189
   272   3    188    214
   273   1    189    190
   274   2    189    493
   275   1    190    191
   276   3    190    215
   277   1    191    192
   278   3    191    216
   279   1    217    218
   280   1    217    222
   281   2    217    440
   282   1    218    219
   283   3    218    223
   284   1    219    220
   285   3    219    224
   286   1    220    221
   287   4    220    233
   288   1    221    222
   289   3    221    225
   290   3    222    226
   291   1    227    228
   292   1    227    232
   293   3    227    265
   294   1    228    229
   295   4    228    233
   296   1    229    230
   297   3    229    266
   298   1    230    231
   299   3    230    267
   300   1    231    232
   301   2    231    530
   302   3    232    268
   303   4    234    233
   304   4    245    233
   305   1    234    235
   306   1    234    239
   307   1    235    776
   308   3    235    269
   309   1    236    775
   310   1    236    777
   311   3    236    270
   312   1    237    776
   313   1    237    238
   314   2    237    985
   315   1    238    239
   316   3    238    271
   317   3    239    272
   318   1    240    241
   319   1    240    245
   320   3    240    273
   321   1    241    242
   322   3    241    274
   323   1    242    243
   324   4    242    246
   325   1    243    244
   326   3    243    275
   327   1    244    245
   328   3    244    276
   329   4    790    246
   330   4    793    246
   331   4    264    246
   332   1    247    248
   333   1    247    252
   334   2    247    470
   335   1    248    789
   336   3    248    817
   337   1    249    788
   338   1    249    790
   339   3    249    278
   340   1    250    789
   341   4    250    786
   342   1    250    251
   343   1    251    252
   344   3    251    279
   345   3    252    280
   346   4    253    786
   347   1    253    254
   348   1    253    258
   349   1    254    255
   350   3    254    821
   351   1    255    256
   352   3    255    282
   353   1    256    257
   354   2    256    488
   355   1    257    258
   356   3    257    283
   357   3    258    284
   358   1    259    800
   359   1    259    804
   360   3    259    285
   361   1    260    799
   362   1    260    261
   363   3    260    826
   364   1    261    262
   365   2    261    451
   366   1    262    263
   367   3    262    287
   368   1    263    264
   369   3    263    288
   370   1    264    799
   371   3    788    277
   372   3    794    281
   373   3    800    286
   374   1    289    290
   375   1    289    294
   376   2    289    482
   377   1    290    291
   378   3    290    295
   379   1    291    292
   380   3    291    296
   381   1    292    293
   382   4    292    305
   383   1    293    294
   384   3    293    297
   385   3    294    298
   386   1    299    300
   387   1    299    304
   388   3    299    337
   389   1    300    301
   390   4    300    305
   391   1    301    302
   392   3    301    338
   393   1    302    303
   394   3    302    339
   395   1    303    304
   396   2    303    452
   397   3    304    340
   398   4    306    305
   399   4    317    305
   400   1    306    307
   401   1    306    311
   402   1    307    308
   403   3    307    341
   404   1    308    309
   405   3    308    342
   406   1    309    310
   407   2    309    475
   408   1    310    311
   409   3    310    343
   410   3    311    344
   411   1    312    313
   412   1    312    317
   413   3    312    345
   414   1    313    314
   415   3    313    346
   416   1    314    315
   417   4    314    318
   418   1    315    316
   419   3    315    347
   420   1    316    317
   421   3    316    348
   422   4    322    318
   423   4    325    318
   424   4    336    318
   425   1    319    320
   426   1    319    324
   427   2    319    433
   428   1    320    321
   429   3    320    349
   430   1    321    322
   431   3    321    350
   432   1    322    323
   433   1    323    324
   434   3    323    351
   435   3    324    352
   436   1    325    326
   437   1    325    330
   438   1    326    327
   439   3    326    353
   440   1    327    328
   441   3    327    354
   442   1    328    329
   443   2    328    457
   444   1    329    330
   445   3    329    355
   446   3    330    356
   447   1    331    332
   448   1    331    336
   449   3    331    357
   450   1    332    333
   451   3    332    358
   452   1    333    334
   453   2    333    523
   454   1    334    335
   455   3    334    359
   456   1    335    336
   457   3    335    360
   458   1    361    362
   459   1    361    366
   460   2    361    446
   461   1    362    363
   462   3    362    367
   463   1    363    364
   464   3    363    368
   465   1    364    365
   466   4    364    377
   467   1    365    366
   468   3    365    369
   469   3    366    370
   470   1    371    372
   471   1    371    376
   472   3    371    409
   473   1    372    373
   474   4    372    377
   475   1    373    374
   476   3    373    410
   477   1    374    375
   478   3    374   1491
   479   1    375    376
   480   2    375   1580
   481   3    376    412
   482   4    378    377
   483   4    389    377
   484   1    378    379
   485   1    378    383
   486   1    379   1460
   487   3    379   1493
   488   1    380   1459
   489   1    380   1461
   490   3    380    414
   491   1    381   1460
   492   1    381    382
   493   2    381   1519
   494   1    382    383
   495   3    382    415
   496   3    383    416
   497   1    384    385
   498   1    384    389
   499   3    384    417
   500   1    385    386
   501   3    385    418
   502   1    386    387
   503   4    386    390
   504   1    387    388
   505   3    387    419
   506   1    388    389
   507   3    388    420
   508   4    394    390
   509   4    397    390
   510   4    408    390
   511   1    391   1472
   512   1    391    396
   513   2    391    434
   514   1    392   1471
   515   1    392    393
   516   3    392    421
   517   1    393    394
   518   3    393    422
   519   1    394   1475
   520   1    395   1474
   521   1    395    396
   522   3    395    423
   523   3    396    424
   524   1    397    398
   525   1    397   1482
   526   1    398    399
   527   3    398    425
   528   1    399   1480
   529   3    399    966
   530   1    400   1479
   531   1    400    401
   532   2    400   1058
   533   1    401    402
   534   3    401    427
   535   1    402   1477
   536   3    402    428
   537   1    403    404
   538   1    403    408
   539   3    403    429
   540   1    404    405
   541   3    404    430
   542   1    405    406
   543   2    405    463
   544   1    406    407
   545   3    406    431
   546   1    407    408
   547   3    407    432
   548   3   1454    411
   549   3   1459    413
   550   3    939    426
   551   5    433    434
   552   6    435    433
   553   6    436    433
   554   6    437    434
   555   6    438    434
   556   2   1461    439
   557   5    439    440
   558   6    441    439
   559   6    442    439
   560   6    443    440
   561   6    444    440
   562   2    777    445
   563   5    445    446
   564   6    447    445
   565   6    448    445
   566   6    449    446
   567   6    450    446
   568   5    451    452
   569   6    453    451
   570   6    454    451
   571   6    455    452
   572   6    456    452
   573   5    457    458
   574   6    459    457
   575   6    460    457
   576   6   1001    458
   577   6    462    458
   578   6    461    998
   579   5    463    464
   580   6    465    463
   581   6    466    463
   582   6    467    464
   583   6    468    464
   584   5    469    470
   585   6    471    469
   586   6    472    469
   587   6    473    470
   588   6    474    470
   589   5    475    476
   590   6    477    475
   591   6    478    475
   592   6    479    476
   593   6    480    476
   594   5    481    482
   595   6    483    481
   596   6    484    481
   597   6    485    482
   598   6    486    482
   599   5    487    488
   600   6    489    487
   601   6    490    487
   602   6    491    488
   603   6    492    488
   604   5    493    494
   605   6    495    493
   606   6    496    493
   607   6    497    494
   608   6    498    494
   609   5    499    500
   610   6    501    499
   611   6    502    499
   612   2   1455    500
   613   6    503    500
   614   6   1584    500
   615   6    504   1580
   616   5    505    506
   617   6    507    505
   618   6    508    505
   619   6    509    506
   620   6    510    506
   621   5    511    512
   622   6    513    511
   623   6    514    511
   624   6    515    512
   625   6    516    512
   626   2   1120    517
   627   5    517    518
   628   6    519    517
   629   6   1060    517
   630   2    940    518
   631   6   1061    518
   632   6   1602    518
   633   6    520   1057
   634   6    521   1058
   635   6    522   1598
   636   5    523    524
   637   6    525    523
   638   6    526    523
   639   6    527    524
   640   6    528    524
   641   5    529   1070
   642   6    531    529
   643   6    532    529
   644   5    530   1069
   645   6    533    530
   646   6    534    530
   647   5    535    536
   648   6    537    535
   649   6    538    535
   650   6    539    536
   651   6    540    536
   652   1    541    542
   653   1    541    546
   654   2    541   1046
   655   1    542    543
   656   3    542    547
   657   1    543    544
   658   3    543    548
   659   1    544    545
   660   1    545    546
   661   3    546    550
   662   1    551    552
   663   1    551    556
   664   3    551    589
   665   1    552    553
   666   4    552    557
   667   1    553    554
   668   3    553    590
   669   1    554    555
   670   3    554    591
   671   1    555    556
   672   2    555   1064
   673   3    556    592
   674   4    558    557
   675   4    569    557
   676   1    558    563
   677   3    559    593
   678   1    560    561
   679   1    561    562
   680   2    561   1051
   681   1    562    563
   682   3    562    595
   683   3    563    596
   684   1    564    565
   685   1    564    569
   686   3    564    597
   687   1    565    566
   688   3    565    598
   689   4    566    570
   690   1    567    568
   691   3    567    599
   692   3    568    600
   693   4    574    570
   694   4    577    570
   695   4    588    570
   696   1    571    572
   697   1    571    576
   698   2    571   1075
   699   1    572    573
   700   3    572    601
   701   1    573    574
   702   3    573    602
   703   1    574    575
   704   1    575    576
   705   3    575    603
   706   3    576    604
   707   1    577    582
   708   1    578    579
   709   3    578    605
   710   3    579   1686
   711   1    580    581
   712   2    580   2137
   713   1    581    582
   714   3    581    607
   715   3    582    608
   716   1    583    588
   717   3    583    609
   718   1    584    585
   719   3    584    610
   720   1    585    586
   721   2    585   1069
   722   3    586    611
   723   1    587    588
   724   3    587    612
   725   3   1659    606
   726   1    613    614
   727   1    613    618
   728   2    613   1016
   729   1    614    615
   730   3    614    619
   731   1    615   1696
   732   3    615    620
   733   1    616   1695
   734   1    616    617
   735   4    616    629
   736   1    617   1698
   737   3    617    621
   738   1    618   1697
   739   3    618    622
   740   1    623    624
   741   1    623    628
   742   3    623    661
   743   1    624    625
   744   4    624    629
   745   1    625    626
   746   3    625    662
   747   1    626    627
   748   3    626    663
   749   1    627    628
   750   2    627   1034
   751   3    628    664
   752   4    630    629
   753   4    641    629
   754   1    630    631
   755   1    630    635
   756   1    631    632
   757   3    631    665
   758   1    632    633
   759   3    632    666
   760   1    633    634
   761   2    633   1021
   762   1    634    635
   763   3    634    667
   764   3    635    668
   765   1    636    637
   766   1    636    641
   767   3    636    669
   768   1    637   1718
   769   3    637    670
   770   1    638   1717
   771   1    638    639
   772   4    638   1722
   773   1    639    640
   774   3    639    671
   775   1    640   1721
   776   3    640    672
   777   1    641   1720
   778   4   1718    642
   779   4    646    642
   780   4   1729    642
   781   4   1740    642
   782   1    643    644
   783   1    643    648
   784   2    643   1076
   785   1    644    645
   786   3    644    673
   787   1    645    646
   788   3    645    674
   789   1    646    647
   790   1    647    648
   791   3    647    675
   792   3    648    676
   793   4    649   1722
   794   1    649    650
   795   1    649   1734
   796   3    650    677
   797   1    651    652
   798   3    651    678
   799   1    652    653
   800   2    652   1027
   801   1    653   1194
   802   3    653   1759
   803   1    654   1193
   804   1    654   1729
   805   3    654    680
   806   1    655   1736
   807   1    655   1740
   808   3    655    681
   809   1    656   1735
   810   1    656    657
   811   3    656   1762
   812   1    657    658
   813   2    657   1039
   814   1    658    659
   815   3    658    683
   816   1    659    660
   817   3    659    684
   818   1    660   1735
   819   4    660   1722
   820   3   1733    679
   821   3   1736    682
   822   1    685    686
   823   1    685    690
   824   2    685   1052
   825   1    686    687
   826   3    686    691
   827   1    687    688
   828   3    687    692
   829   1    688    689
   830   4    688    701
   831   1    689    690
   832   3    689    693
   833   3    690    694
   834   1    695    696
   835   1    695    700
   836   3    695    733
   837   1    696    697
   838   4    696    701
   839   1    697    698
   840   3    697    734
   841   1    698    699
   842   3    698    735
   843   1    699    700
   844   2    699   1004
   845   3    700    736
   846   4    702    701
   847   4    713    701
   848   1    702    703
   849   1    702    707
   850   1    703    704
   851   3    703    737
   852   1    704    705
   853   3    704    738
   854   1    705    706
   855   2    705   1045
   856   1    706    707
   857   3    706    739
   858   3    707    740
   859   1    708    709
   860   1    708    713
   861   3    708    741
   862   1    709    710
   863   3    709    742
   864   1    710    711
   865   4    710    714
   866   1    711    712
   867   3    711    743
   868   1    712    713
   869   3    712    744
   870   4    718    714
   871   4    721    714
   872   4    732    714
   873   1    715    716
   874   1    715    720
   875   2    715   1009
   876   1    716    717
   877   3    716    745
   878   1    717    718
   879   3    717    746
   880   1    718    719
   881   1    719    720
   882   3    719    747
   883   3    720    748
   884   1    721    722
   885   1    721    726
   886   1    722    723
   887   3    722    749
   888   1    723    724
   889   3    723    750
   890   1    724    725
   891   2    724    998
   892   1    725    726
   893   3    725    751
   894   3    726    752
   895   1    727    728
   896   1    727    732
   897   3    727    753
   898   1    728    729
   899   3    728    754
   900   1    729    730
   901   2    729   1033
   902   1    730    731
   903   3    730    755
   904   1    731    732
   905   3    731    756
   906   1    757    758
   907   1    757    762
   908   2    757    980
   909   1    758    759
   910   3    758    763
   911   1    759    760
   912   3    759    764
   913   1    760    761
   914   4    760    773
   915   1    761    762
   916   3    761    765
   917   3    762    766
   918   1    767    768
   919   1    767    772
   920   3    767    805
   921   1    768    769
   922   4    768    773
   923   1    769    770
   924   3    769    806
   925   1    770    771
   926   3    770    807
   927   1    771    772
   928   2    771   1070
   929   3    772    808
   930   4    774    773
   931   4    785    773
   932   1    774    775
   933   1    774    779
   934   3    775    809
   935   3    776    810
   936   1    777    778
   937   1    778    779
   938   3    778    811
   939   3    779    812
   940   1    780    781
   941   1    780    785
   942   3    780    813
   943   1    781    782
   944   3    781    814
   945   1    782    783
   946   4    782    786
   947   1    783    784
   948   3    783    815
   949   1    784    785
   950   3    784    816
   951   4    804    786
   952   1    787    788
   953   1    787    792
   954   2    787   1010
   955   3    789    818
   956   1    790    791
   957   1    791    792
   958   3    791    819
   959   3    792    820
   960   1    793    794
   961   1    793    798
   962   1    794    795
   963   1    795    796
   964   3    795    822
   965   1    796    797
   966   2    796   1028
   967   1    797    798
   968   3    797    823
   969   3    798    824
   970   3    799    825
   971   1    800    801
   972   1    801    802
   973   2    801    991
   974   1    802    803
   975   3    802    827
   976   1    803    804
   977   3    803    828
   978   1    829    830
   979   1    829    834
   980   2    829   1022
   981   1    830    831
   982   3    830    835
   983   1    831    832
   984   3    831    836
   985   1    832    833
   986   4    832    845
   987   1    833    834
   988   3    833    837
   989   3    834    838
   990   1    839    840
   991   1    839    844
   992   3    839    877
   993   1    840    841
   994   4    840    845
   995   1    841    842
   996   3    841    878
   997   1    842    843
   998   3    842    879
   999   1    843    844
  1000   2    843    992
  1001   3    844    880
  1002   4    846    845
  1003   4    857    845
  1004   1    846    847
  1005   1    846    851
  1006   1    847    848
  1007   3    847    881
  1008   1    848    849
  1009   3    848    882
  1010   1    849    850
  1011   2    849   1015
  1012   1    850    851
  1013   3    850    883
  1014   3    851    884
  1015   1    852    853
  1016   1    852    857
  1017   3    852    885
  1018   1    853    854
  1019   3    853    886
  1020   1    854    855
  1021   4    854    858
  1022   1    855    856
  1023   3    855    887
  1024   1    856    857
  1025   3    856    888
  1026   4    862    858
  1027   4    865    858
  1028   4    876    858
  1029   1    859    860
  1030   1    859    864
  1031   2    859    973
  1032   1    860    861
  1033   3    860    889
  1034   1    861    862
  1035   3    861    890
  1036   1    862    863
  1037   1    863    864
  1038   3    863    891
  1039   3    864    892
  1040   1    865    866
  1041   1    865    870
  1042   1    866    867
  1043   3    866    893
  1044   1    867    868
  1045   3    867    894
  1046   1    868    869
  1047   2    868    997
  1048   1    869    870
  1049   3    869    895
  1050   3    870    896
  1051   1    871    872
  1052   1    871    876
  1053   3    871    897
  1054   1    872    873
  1055   3    872    898
  1056   1    873    874
  1057   2    873   1063
  1058   1    874    875
  1059   3    874    899
  1060   1    875    876
  1061   3    875    900
  1062   1    901    902
  1063   1    901    906
  1064   2    901    986
  1065   1    902    903
  1066   3    902    907
  1067   1    903    904
  1068   3    903    908
  1069   1    904    905
  1070   4    904    917
  1071   1    905    906
  1072   3    905    909
  1073   3    906    910
  1074   1    911    912
  1075   1    911    916
  1076   3    911    949
  1077   1    912    913
  1078   4    912    917
  1079   1    913    914
  1080   3    913    950
  1081   1    914    915
  1082   3    914   2031
  1083   1    915    916
  1084   2    915   2120
  1085   3    916    952
  1086   4    918    917
  1087   4    929    917
  1088   1    918    919
  1089   1    918    923
  1090   1    919   2000
  1091   3    919   2033
  1092   1    920   1999
  1093   1    920   2001
  1094   3    920    954
  1095   1    921   2000
  1096   1    921    922
  1097   2    921   2059
  1098   1    922    923
  1099   3    922    955
  1100   3    923    956
  1101   1    924    925
  1102   1    924    929
  1103   3    924    957
  1104   1    925    926
  1105   3    925    958
  1106   1    926    927
  1107   4    926    930
  1108   1    927    928
  1109   3    927    959
  1110   1    928    929
  1111   3    928    960
  1112   4    934    930
  1113   4    937    930
  1114   4    948    930
  1115   1    931   2012
  1116   1    931    936
  1117   2    931    974
  1118   1    932   2011
  1119   1    932    933
  1120   3    932    961
  1121   1    933    934
  1122   3    933    962
  1123   1    934   2015
  1124   1    935   2014
  1125   1    935    936
  1126   3    935    963
  1127   3    936    964
  1128   1    937    938
  1129   1    937   2022
  1130   1    938    939
  1131   3    938    965
  1132   1    939   2020
  1133   1    940   2019
  1134   1    940    941
  1135   1    941    942
  1136   3    941    967
  1137   1    942   2017
  1138   3    942    968
  1139   1    943    944
  1140   1    943    948
  1141   3    943    969
  1142   1    944    945
  1143   3    944    970
  1144   1    945    946
  1145   2    945   1003
  1146   1    946    947
  1147   3    946    971
  1148   1    947    948
  1149   3    947    972
  1150   3   1994    951
  1151   3   1999    953
  1152   5    973    974
  1153   6    975    973
  1154   6    976    973
  1155   6    977    974
  1156   6    978    974
  1157   2   2001    979
  1158   5    979    980
  1159   6    981    979
  1160   6    982    979
  1161   6    983    980
  1162   6    984    980
  1163   5    985    986
  1164   6    987    985
  1165   6    988    985
  1166   6    989    986
  1167   6    990    986
  1168   5    991    992
  1169   6    993    991
  1170   6    994    991
  1171   6    995    992
  1172   6    996    992
  1173   5    997    998
  1174   6    999    997
  1175   6   1000    997
  1176   6   1002    998
  1177   5   1003   1004
  1178   6   1005   1003
  1179   6   1006   1003
  1180   6   1007   1004
  1181   6   1008   1004
  1182   5   1009   1010
  1183   6   1011   1009
  1184   6   1012   1009
  1185   6   1013   1010
  1186   6   1014   1010
  1187   5   1015   1016
  1188   6   1017   1015
  1189   6   1018   1015
  1190   6   1019   1016
  1191   6   1020   1016
  1192   5   1021   1022
  1193   6   1023   1021
  1194   6   1024   1021
  1195   6   1025   1022
  1196   6   1026   1022
  1197   5   1027   1028
  1198   6   1029   1027
  1199   6   1030   1027
  1200   6   1031   1028
  1201   6   1032   1028
  1202   5   1033   1034
  1203   6   1035   1033
  1204   6   1036   1033
  1205   6   1037   1034
  1206   6   1038   1034
  1207   5   1039   1040
  1208   6   1041   1039
  1209   6   1042   1039
  1210   2   1995   1040
  1211   6   1043   1040
  1212   6   2124   1040
  1213   6   1044   2120
  1214   5   1045   1046
  1215   6   1047   1045
  1216   6   1048   1045
  1217   6   1049   1046
  1218   6   1050   1046
  1219   5   1051   1052
  1220   6   1053   1051
  1221   6   1054   1051
  1222   6   1055   1052
  1223   6   1056   1052
  1224   2   1660   1057
  1225   5   1057   1058
  1226   6   1059   1057
  1227   6   2142   1058
  1228   6   1062   2138
  1229   5   1063   1064
  1230   6   1065   1063
  1231   6   1066   1063
  1232   6   1067   1064
  1233   6   1068   1064
  1234   6   1071   1069
  1235   6   1072   1069
  1236   6   1073   1070
  1237   6   1074   1070
  1238   5   1075   1076
  1239   6   1077   1075
  1240   6   1078   1075
  1241   6   1079   1076
  1242   6   1080   1076
  1243   1   1081   1082
  1244   1   1081   1086
  1245   2   1081   1586
  1246   1   1082   1083
  1247   3   1082   1087
  1248   1   1083   1084
  1249   3   1083   1088
  1250   1   1084   1085
  1251   4   1084   1637
  1252   1   1085   1086
  1253   3   1085   1629
  1254   3   1086   1090
  1255   3   1625   1089
  1256   1   1091   1092
  1257   1   1091   1096
  1258   3   1091   1129
  1259   1   1092   1093
  1260   4   1092   1097
  1261   1   1093   1094
  1262   3   1093   1130
  1263   1   1094   1095
  1264   3   1094   1131
  1265   1   1095   1096
  1266   2   1095   1604
  1267   3   1096   1132
  1268   4   1624   1097
  1269   4   1098   1097
  1270   4   1109   1097
  1271   1   1098   1639
  1272   1   1098   1103
  1273   1   1099   1638
  1274   1   1099   1640
  1275   3   1099   1133
  1276   1   1100   1639
  1277   1   1100   1101
  1278   3   1100   1674
  1279   1   1101   1102
  1280   2   1101   1591
  1281   1   1102   1103
  1282   3   1102   1135
  1283   3   1103   1136
  1284   1   1104   1105
  1285   1   1104   1109
  1286   3   1104   1137
  1287   1   1105   1106
  1288   3   1105   1138
  1289   1   1106   1647
  1290   4   1106   1110
  1291   1   1107   1646
  1292   1   1107   1108
  1293   3   1107   1139
  1294   1   1108   1649
  1295   3   1108   1140
  1296   1   1109   1648
  1297   4   1114   1110
  1298   4   1117   1110
  1299   4   1128   1110
  1300   1   1111   1112
  1301   1   1111   1116
  1302   2   1111   1615
  1303   1   1112   1113
  1304   3   1112   1141
  1305   1   1113   1114
  1306   3   1113   1142
  1307   1   1114   1115
  1308   1   1115   1116
  1309   3   1115   1143
  1310   3   1116   1144
  1311   1   1117   1658
  1312   1   1117   1122
  1313   1   1118   1657
  1314   1   1118   1119
  1315   3   1118   1145
  1316   1   1119   1660
  1317   1   1120   1659
  1318   1   1120   1121
  1319   1   1121   1122
  1320   3   1121   1147
  1321   3   1122   1148
  1322   1   1123   1664
  1323   1   1123   1128
  1324   3   1123   1149
  1325   1   1124   1663
  1326   1   1124   1125
  1327   3   1124   1150
  1328   1   1125   1126
  1329   2   1125   1609
  1330   1   1126   1667
  1331   3   1126   1151
  1332   1   1127   1666
  1333   1   1127   1128
  1334   3   1127   1152
  1335   3   1640   1134
  1336   1   1153   1154
  1337   1   1153   1158
  1338   2   1153   1556
  1339   1   1154   1155
  1340   3   1154   1159
  1341   3   1155   1160
  1342   1   1156   1157
  1343   4   1156   1169
  1344   3   1157   1161
  1345   3   1158   1162
  1346   1   1163   1164
  1347   1   1163   1168
  1348   3   1163   1201
  1349   1   1164   1165
  1350   4   1164   1169
  1351   1   1165   1166
  1352   3   1165   1202
  1353   1   1166   1167
  1354   3   1166   1203
  1355   1   1167   1168
  1356   2   1167   1574
  1357   3   1168   1204
  1358   4   1170   1169
  1359   4   1181   1169
  1360   1   1170   1171
  1361   1   1170   1175
  1362   1   1171   1172
  1363   3   1171   1205
  1364   1   1172   1173
  1365   3   1172   1206
  1366   1   1173   1174
  1367   2   1173   1561
  1368   1   1174   1175
  1369   3   1174   1207
  1370   3   1175   1208
  1371   1   1176   1177
  1372   1   1176   1181
  1373   3   1176   1209
  1374   3   1177   1210
  1375   1   1178   1179
  1376   1   1179   1180
  1377   3   1179   1211
  1378   3   1180   1212
  1379   4   1186   1182
  1380   1   1183   1184
  1381   1   1183   1188
  1382   2   1183   1616
  1383   1   1184   1185
  1384   3   1184   1213
  1385   1   1185   1186
  1386   3   1185   1214
  1387   1   1186   1187
  1388   1   1187   1188
  1389   3   1187   1215
  1390   3   1188   1216
  1391   1   1189   1190
  1392   1   1190   1731
  1393   3   1190   1217
  1394   1   1191   1730
  1395   1   1191   1192
  1396   3   1191   1218
  1397   1   1192   1193
  1398   2   1192   1567
  1399   3   1194   1220
  1400   3   1195   1221
  1401   1   1196   1197
  1402   1   1197   1198
  1403   2   1197   1579
  1404   1   1198   1199
  1405   3   1198   1223
  1406   1   1199   1200
  1407   3   1199   1224
  1408   1   1225   1226
  1409   1   1225   1230
  1410   2   1225   1592
  1411   1   1226   1227
  1412   3   1226   1231
  1413   1   1227   1228
  1414   3   1227   1232
  1415   1   1228   1229
  1416   4   1228   1241
  1417   1   1229   1230
  1418   3   1229   1233
  1419   3   1230   1234
  1420   1   1235   1236
  1421   1   1235   1240
  1422   3   1235   1273
  1423   1   1236   1237
  1424   4   1236   1241
  1425   1   1237   1238
  1426   3   1237   1274
  1427   1   1238   1239
  1428   3   1238   1275
  1429   1   1239   1240
  1430   2   1239   1544
  1431   3   1240   1276
  1432   4   1242   1241
  1433   4   1253   1241
  1434   1   1242   1243
  1435   1   1242   1247
  1436   1   1243   1244
  1437   3   1243   1277
  1438   1   1244   1245
  1439   3   1244   1278
  1440   1   1245   1246
  1441   2   1245   1585
  1442   1   1246   1247
  1443   3   1246   1279
  1444   3   1247   1280
  1445   1   1248   1249
  1446   1   1248   1253
  1447   3   1248   1281
  1448   1   1249   1250
  1449   3   1249   1282
  1450   1   1250   1251
  1451   4   1250   1254
  1452   1   1251   1252
  1453   3   1251   1283
  1454   1   1252   1253
  1455   3   1252   1284
  1456   4   1258   1254
  1457   4   1261   1254
  1458   4   1272   1254
  1459   1   1255   1256
  1460   1   1255   1260
  1461   2   1255   1549
  1462   1   1256   1257
  1463   3   1256   1285
  1464   1   1257   1258
  1465   3   1257   1286
  1466   1   1258   1259
  1467   1   1259   1260
  1468   3   1259   1287
  1469   3   1260   1288
  1470   1   1261   1262
  1471   1   1261   1266
  1472   1   1262   1263
  1473   3   1262   1289
  1474   1   1263   1264
  1475   3   1263   1290
  1476   1   1264   1265
  1477   2   1264   1538
  1478   1   1265   1266
  1479   3   1265   1291
  1480   3   1266   1292
  1481   1   1267   1268
  1482   1   1267   1272
  1483   3   1267   1293
  1484   1   1268   1269
  1485   3   1268   1294
  1486   1   1269   1270
  1487   2   1269   1573
  1488   1   1270   1271
  1489   3   1270   1295
  1490   1   1271   1272
  1491   3   1271   1296
  1492   1   1297   1298
  1493   1   1297   1302
  1494   2   1297   1520
  1495   1   1298   1299
  1496   3   1298   1303
  1497   1   1299   1300
  1498   3   1299   1304
  1499   1   1300   1301
  1500   4   1300   1313
  1501   1   1301   1302
  1502   3   1301   1305
  1503   3   1302   1306
  1504   1   1307   1308
  1505   1   1307   1312
  1506   3   1307   1345
  1507   1   1308   1309
  1508   4   1308   1313
  1509   1   1309   1310
  1510   3   1309   1346
  1511   1   1310   1311
  1512   3   1310   1347
  1513   1   1311   1312
  1514   2   1311   1610
  1515   3   1312   1348
  1516   4   1314   1313
  1517   4   1325   1313
  1518   1   1314   1315
  1519   1   1314   1319
  1520   1   1315   1856
  1521   3   1315   1349
  1522   1   1316   1855
  1523   1   1316   1857
  1524   3   1316   1350
  1525   1   1317   1856
  1526   1   1317   1318
  1527   2   1317   2065
  1528   1   1318   1319
  1529   3   1318   1351
  1530   3   1319   1352
  1531   1   1320   1321
  1532   1   1320   1325
  1533   3   1320   1353
  1534   1   1321   1322
  1535   3   1321   1354
  1536   1   1322   1323
  1537   4   1322   1326
  1538   1   1323   1324
  1539   3   1323   1355
  1540   1   1324   1325
  1541   3   1324   1356
  1542   4   1870   1326
  1543   4   1873   1326
  1544   4   1344   1326
  1545   1   1327   1328
  1546   1   1327   1332
  1547   2   1327   1550
  1548   1   1328   1869
  1549   3   1328   1897
  1550   1   1329   1868
  1551   1   1329   1870
  1552   3   1329   1358
  1553   1   1330   1869
  1554   4   1330   1866
  1555   1   1330   1331
  1556   1   1331   1332
  1557   3   1331   1359
  1558   3   1332   1360
  1559   4   1333   1866
  1560   1   1333   1334
  1561   1   1333   1338
  1562   1   1334   1335
  1563   3   1334   1901
  1564   1   1335   1336
  1565   3   1335   1362
  1566   1   1336   1337
  1567   2   1336   1568
  1568   1   1337   1338
  1569   3   1337   1363
  1570   3   1338   1364
  1571   1   1339   1880
  1572   1   1339   1884
  1573   3   1339   1365
  1574   1   1340   1879
  1575   1   1340   1341
  1576   3   1340   1906
  1577   1   1341   1342
  1578   2   1341   1531
  1579   1   1342   1343
  1580   3   1342   1367
  1581   1   1343   1344
  1582   3   1343   1368
  1583   1   1344   1879
  1584   3   1868   1357
  1585   3   1874   1361
  1586   3   1880   1366
  1587   1   1369   1370
  1588   1   1369   1374
  1589   2   1369   1562
  1590   1   1370   1371
  1591   3   1370   1375
  1592   1   1371   1372
  1593   3   1371   1376
  1594   1   1372   1373
  1595   4   1372   1385
  1596   1   1373   1374
  1597   3   1373   1377
  1598   3   1374   1378
  1599   1   1379   1380
  1600   1   1379   1384
  1601   3   1379   1417
  1602   1   1380   1381
  1603   4   1380   1385
  1604   1   1381   1382
  1605   3   1381   1418
  1606   1   1382   1383
  1607   3   1382   1419
  1608   1   1383   1384
  1609   2   1383   1532
  1610   3   1384   1420
  1611   4   1386   1385
  1612   4   1397   1385
  1613   1   1386   1387
  1614   1   1386   1391
  1615   1   1387   1388
  1616   3   1387   1421
  1617   1   1388   1389
  1618   3   1388   1422
  1619   1   1389   1390
  1620   2   1389   1555
  1621   1   1390   1391
  1622   3   1390   1423
  1623   3   1391   1424
  1624   1   1392   1393
  1625   1   1392   1397
  1626   3   1392   1425
  1627   1   1393   1394
  1628   3   1393   1426
  1629   1   1394   1395
  1630   4   1394   1398
  1631   1   1395   1396
  1632   3   1395   1427
  1633   1   1396   1397
  1634   3   1396   1428
  1635   4   1402   1398
  1636   4   1405   1398
  1637   4   1416   1398
  1638   1   1399   1400
  1639   1   1399   1404
  1640   2   1399   1513
  1641   1   1400   1401
  1642   3   1400   1429
  1643   1   1401   1402
  1644   3   1401   1430
  1645   1   1402   1403
  1646   1   1403   1404
  1647   3   1403   1431
  1648   3   1404   1432
  1649   1   1405   1406
  1650   1   1405   1410
  1651   1   1406   1407
  1652   3   1406   1433
  1653   1   1407   1408
  1654   3   1407   1434
  1655   1   1408   1409
  1656   2   1408   1537
  1657   1   1409   1410
  1658   3   1409   1435
  1659   3   1410   1436
  1660   1   1411   1412
  1661   1   1411   1416
  1662   3   1411   1437
  1663   1   1412   1413
  1664   3   1412   1438
  1665   1   1413   1414
  1666   2   1413   1603
  1667   1   1414   1415
  1668   3   1414   1439
  1669   1   1415   1416
  1670   3   1415   1440
  1671   1   1441   1442
  1672   1   1441   1446
  1673   2   1441   1526
  1674   1   1442   1443
  1675   3   1442   1447
  1676   1   1443   1444
  1677   3   1443   1448
  1678   1   1444   1445
  1679   4   1444   1457
  1680   1   1445   1446
  1681   3   1445   1449
  1682   3   1446   1450
  1683   1   1451   1452
  1684   1   1451   1456
  1685   3   1451   1489
  1686   1   1452   1453
  1687   4   1452   1457
  1688   1   1453   1454
  1689   3   1453   1490
  1690   1   1454   1455
  1691   1   1455   1456
  1692   3   1456   1492
  1693   4   1458   1457
  1694   4   1469   1457
  1695   1   1458   1459
  1696   1   1458   1463
  1697   3   1460   1494
  1698   1   1461   1462
  1699   1   1462   1463
  1700   3   1462   1495
  1701   3   1463   1496
  1702   1   1464   1465
  1703   1   1464   1469
  1704   3   1464   1497
  1705   1   1465   1466
  1706   3   1465   1498
  1707   1   1466   1467
  1708   4   1466   1470
  1709   1   1467   1468
  1710   3   1467   1499
  1711   1   1468   1469
  1712   3   1468   1500
  1713   4   1474   1470
  1714   4   1477   1470
  1715   4   1488   1470
  1716   1   1471   1476
  1717   2   1471   1514
  1718   1   1472   1473
  1719   3   1472   1501
  1720   1   1473   1474
  1721   3   1473   1502
  1722   1   1475   1476
  1723   3   1475   1503
  1724   3   1476   1504
  1725   1   1477   1478
  1726   1   1478   1479
  1727   3   1478   1505
  1728   3   1479   2046
  1729   1   1480   1481
  1730   2   1480   2138
  1731   1   1481   1482
  1732   3   1481   1507
  1733   3   1482   1508
  1734   1   1483   1484
  1735   1   1483   1488
  1736   3   1483   1509
  1737   1   1484   1485
  1738   3   1484   1510
  1739   1   1485   1486
  1740   2   1485   1543
  1741   1   1486   1487
  1742   3   1486   1511
  1743   1   1487   1488
  1744   3   1487   1512
  1745   3   2019   1506
  1746   5   1513   1514
  1747   6   1515   1513
  1748   6   1516   1513
  1749   6   1517   1514
  1750   6   1518   1514
  1751   5   1519   1520
  1752   6   1521   1519
  1753   6   1522   1519
  1754   6   1523   1520
  1755   6   1524   1520
  1756   2   1857   1525
  1757   5   1525   1526
  1758   6   1527   1525
  1759   6   1528   1525
  1760   6   1529   1526
  1761   6   1530   1526
  1762   5   1531   1532
  1763   6   1533   1531
  1764   6   1534   1531
  1765   6   1535   1532
  1766   6   1536   1532
  1767   5   1537   1538
  1768   6   1539   1537
  1769   6   1540   1537
  1770   6   2081   1538
  1771   6   1542   1538
  1772   6   1541   2078
  1773   5   1543   1544
  1774   6   1545   1543
  1775   6   1546   1543
  1776   6   1547   1544
  1777   6   1548   1544
  1778   5   1549   1550
  1779   6   1551   1549
  1780   6   1552   1549
  1781   6   1553   1550
  1782   6   1554   1550
  1783   5   1555   1556
  1784   6   1557   1555
  1785   6   1558   1555
  1786   6   1559   1556
  1787   6   1560   1556
  1788   5   1561   1562
  1789   6   1563   1561
  1790   6   1564   1561
  1791   6   1565   1562
  1792   6   1566   1562
  1793   5   1567   1568
  1794   6   1569   1567
  1795   6   1570   1567
  1796   6   1571   1568
  1797   6   1572   1568
  1798   5   1573   1574
  1799   6   1575   1573
  1800   6   1576   1573
  1801   6   1577   1574
  1802   6   1578   1574
  1803   5   1579   1580
  1804   6   1581   1579
  1805   6   1582   1579
  1806   6   1583   1580
  1807   5   1585   1586
  1808   6   1587   1585
  1809   6   1588   1585
  1810   6   1589   1586
  1811   6   1590   1586
  1812   5   1591   1592
  1813   6   1593   1591
  1814   6   1594   1591
  1815   6   1595   1592
  1816   6   1596   1592
  1817   5   1597   1598
  1818   6   1599   1597
  1819   6   2140   1597
  1820   2   2020   1598
  1821   6   2141   1598
  1822   6   1600   2137
  1823   6   1601   2138
  1824   5   1603   1604
  1825   6   1605   1603
  1826   6   1606   1603
  1827   6   1607   1604
  1828   6   1608   1604
  1829   5   1609   2150
  1830   6   1611   1609
  1831   6   1612   1609
  1832   5   1610   2149
  1833   6   1613   1610
  1834   6   1614   1610
  1835   5   1615   1616
  1836   6   1617   1615
  1837   6   1618   1615
  1838   6   1619   1616
  1839   6   1620   1616
  1840   1   1621   1622
  1841   1   1621   1626
  1842   2   1621   2126
  1843   1   1622   1623
  1844   3   1622   1627
  1845   1   1623   1624
  1846   3   1623   1628
  1847   1   1624   1625
  1848   1   1625   1626
  1849   3   1626   1630
  1850   1   1631   1632
  1851   1   1631   1636
  1852   3   1631   1669
  1853   1   1632   1633
  1854   4   1632   1637
  1855   1   1633   1634
  1856   3   1633   1670
  1857   1   1634   1635
  1858   3   1634   1671
  1859   1   1635   1636
  1860   2   1635   2144
  1861   3   1636   1672
  1862   4   1638   1637
  1863   4   1649   1637
  1864   1   1638   1643
  1865   3   1639   1673
  1866   1   1640   1641
  1867   1   1641   1642
  1868   2   1641   2131
  1869   1   1642   1643
  1870   3   1642   1675
  1871   3   1643   1676
  1872   1   1644   1645
  1873   1   1644   1649
  1874   3   1644   1677
  1875   1   1645   1646
  1876   3   1645   1678
  1877   4   1646   1650
  1878   1   1647   1648
  1879   3   1647   1679
  1880   3   1648   1680
  1881   4   1654   1650
  1882   4   1657   1650
  1883   4   1668   1650
  1884   1   1651   1652
  1885   1   1651   1656
  1886   2   1651   2155
  1887   1   1652   1653
  1888   3   1652   1681
  1889   1   1653   1654
  1890   3   1653   1682
  1891   1   1654   1655
  1892   1   1655   1656
  1893   3   1655   1683
  1894   3   1656   1684
  1895   1   1657   1662
  1896   1   1658   1659
  1897   3   1658   1685
  1898   1   1660   1661
  1899   1   1661   1662
  1900   3   1661   1687
  1901   3   1662   1688
  1902   1   1663   1668
  1903   3   1663   1689
  1904   1   1664   1665
  1905   3   1664   1690
  1906   1   1665   1666
  1907   2   1665   2149
  1908   3   1666   1691
  1909   1   1667   1668
  1910   3   1667   1692
  1911   1   1693   1694
  1912   1   1693   1698
  1913   2   1693   2096
  1914   1   1694   1695
  1915   3   1694   1699
  1916   3   1695   1700
  1917   1   1696   1697
  1918   4   1696   1709
  1919   3   1697   1701
  1920   3   1698   1702
  1921   1   1703   1704
  1922   1   1703   1708
  1923   3   1703   1741
  1924   1   1704   1705
  1925   4   1704   1709
  1926   1   1705   1706
  1927   3   1705   1742
  1928   1   1706   1707
  1929   3   1706   1743
  1930   1   1707   1708
  1931   2   1707   2114
  1932   3   1708   1744
  1933   4   1710   1709
  1934   4   1721   1709
  1935   1   1710   1711
  1936   1   1710   1715
  1937   1   1711   1712
  1938   3   1711   1745
  1939   1   1712   1713
  1940   3   1712   1746
  1941   1   1713   1714
  1942   2   1713   2101
  1943   1   1714   1715
  1944   3   1714   1747
  1945   3   1715   1748
  1946   1   1716   1717
  1947   1   1716   1721
  1948   3   1716   1749
  1949   3   1717   1750
  1950   1   1718   1719
  1951   1   1719   1720
  1952   3   1719   1751
  1953   3   1720   1752
  1954   4   1726   1722
  1955   1   1723   1724
  1956   1   1723   1728
  1957   2   1723   2156
  1958   1   1724   1725
  1959   3   1724   1753
  1960   1   1725   1726
  1961   3   1725   1754
  1962   1   1726   1727
  1963   1   1727   1728
  1964   3   1727   1755
  1965   3   1728   1756
  1966   1   1729   1730
  1967   3   1730   1757
  1968   1   1731   1732
  1969   3   1731   1758
  1970   1   1732   1733
  1971   2   1732   2107
  1972   3   1734   1760
  1973   3   1735   1761
  1974   1   1736   1737
  1975   1   1737   1738
  1976   2   1737   2119
  1977   1   1738   1739
  1978   3   1738   1763
  1979   1   1739   1740
  1980   3   1739   1764
  1981   1   1765   1766
  1982   1   1765   1770
  1983   2   1765   2132
  1984   1   1766   1767
  1985   3   1766   1771
  1986   1   1767   1768
  1987   3   1767   1772
  1988   1   1768   1769
  1989   4   1768   1781
  1990   1   1769   1770
  1991   3   1769   1773
  1992   3   1770   1774
  1993   1   1775   1776
  1994   1   1775   1780
  1995   3   1775   1813
  1996   1   1776   1777
  1997   4   1776   1781
  1998   1   1777   1778
  1999   3   1777   1814
  2000   1   1778   1779
  2001   3   1778   1815
  2002   1   1779   1780
  2003   2   1779   2084
  2004   3   1780   1816
  2005   4   1782   1781
  2006   4   1793   1781
  2007   1   1782   1783
  2008   1   1782   1787
  2009   1   1783   1784
  2010   3   1783   1817
  2011   1   1784   1785
  2012   3   1784   1818
  2013   1   1785   1786
  2014   2   1785   2125
  2015   1   1786   1787
  2016   3   1786   1819
  2017   3   1787   1820
  2018   1   1788   1789
  2019   1   1788   1793
  2020   3   1788   1821
  2021   1   1789   1790
  2022   3   1789   1822
  2023   1   1790   1791
  2024   4   1790   1794
  2025   1   1791   1792
  2026   3   1791   1823
  2027   1   1792   1793
  2028   3   1792   1824
  2029   4   1798   1794
  2030   4   1801   1794
  2031   4   1812   1794
  2032   1   1795   1796
  2033   1   1795   1800
  2034   2   1795   2089
  2035   1   1796   1797
  2036   3   1796   1825
  2037   1   1797   1798
  2038   3   1797   1826
  2039   1   1798   1799
  2040   1   1799   1800
  2041   3   1799   1827
  2042   3   1800   1828
  2043   1   1801   1802
  2044   1   1801   1806
  2045   1   1802   1803
  2046   3   1802   1829
  2047   1   1803   1804
  2048   3   1803   1830
  2049   1   1804   1805
  2050   2   1804   2078
  2051   1   1805   1806
  2052   3   1805   1831
  2053   3   1806   1832
  2054   1   1807   1808
  2055   1   1807   1812
  2056   3   1807   1833
  2057   1   1808   1809
  2058   3   1808   1834
  2059   1   1809   1810
  2060   2   1809   2113
  2061   1   1810   1811
  2062   3   1810   1835
  2063   1   1811   1812
  2064   3   1811   1836
  2065   1   1837   1838
  2066   1   1837   1842
  2067   2   1837   2060
  2068   1   1838   1839
  2069   3   1838   1843
  2070   1   1839   1840
  2071   3   1839   1844
  2072   1   1840   1841
  2073   4   1840   1853
  2074   1   1841   1842
  2075   3   1841   1845
  2076   3   1842   1846
  2077   1   1847   1848
  2078   1   1847   1852
  2079   3   1847   1885
  2080   1   1848   1849
  2081   4   1848   1853
  2082   1   1849   1850
  2083   3   1849   1886
  2084   1   1850   1851
  2085   3   1850   1887
  2086   1   1851   1852
  2087   2   1851   2150
  2088   3   1852   1888
  2089   4   1854   1853
  2090   4   1865   1853
  2091   1   1854   1855
  2092   1   1854   1859
  2093   3   1855   1889
  2094   3   1856   1890
  2095   1   1857   1858
  2096   1   1858   1859
  2097   3   1858   1891
  2098   3   1859   1892
  2099   1   1860   1861
  2100   1   1860   1865
  2101   3   1860   1893
  2102   1   1861   1862
  2103   3   1861   1894
  2104   1   1862   1863
  2105   4   1862   1866
  2106   1   1863   1864
  2107   3   1863   1895
  2108   1   1864   1865
  2109   3   1864   1896
  2110   4   1884   1866
  2111   1   1867   1868
  2112   1   1867   1872
  2113   2   1867   2090
  2114   3   1869   1898
  2115   1   1870   1871
  2116   1   1871   1872
  2117   3   1871   1899
  2118   3   1872   1900
  2119   1   1873   1874
  2120   1   1873   1878
  2121   1   1874   1875
  2122   1   1875   1876
  2123   3   1875   1902
  2124   1   1876   1877
  2125   2   1876   2108
  2126   1   1877   1878
  2127   3   1877   1903
  2128   3   1878   1904
  2129   3   1879   1905
  2130   1   1880   1881
  2131   1   1881   1882
  2132   2   1881   2071
  2133   1   1882   1883
  2134   3   1882   1907
  2135   1   1883   1884
  2136   3   1883   1908
  2137   1   1909   1910
  2138   1   1909   1914
  2139   2   1909   2102
  2140   1   1910   1911
  2141   3   1910   1915
  2142   1   1911   1912
  2143   3   1911   1916
  2144   1   1912   1913
  2145   4   1912   1925
  2146   1   1913   1914
  2147   3   1913   1917
  2148   3   1914   1918
  2149   1   1919   1920
  2150   1   1919   1924
  2151   3   1919   1957
  2152   1   1920   1921
  2153   4   1920   1925
  2154   1   1921   1922
  2155   3   1921   1958
  2156   1   1922   1923
  2157   3   1922   1959
  2158   1   1923   1924
  2159   2   1923   2072
  2160   3   1924   1960
  2161   4   1926   1925
  2162   4   1937   1925
  2163   1   1926   1927
  2164   1   1926   1931
  2165   1   1927   1928
  2166   3   1927   1961
  2167   1   1928   1929
  2168   3   1928   1962
  2169   1   1929   1930
  2170   2   1929   2095
  2171   1   1930   1931
  2172   3   1930   1963
  2173   3   1931   1964
  2174   1   1932   1933
  2175   1   1932   1937
  2176   3   1932   1965
  2177   1   1933   1934
  2178   3   1933   1966
  2179   1   1934   1935
  2180   4   1934   1938
  2181   1   1935   1936
  2182   3   1935   1967
  2183   1   1936   1937
  2184   3   1936   1968
  2185   4   1942   1938
  2186   4   1945   1938
  2187   4   1956   1938
  2188   1   1939   1940
  2189   1   1939   1944
  2190   2   1939   2053
  2191   1   1940   1941
  2192   3   1940   1969
  2193   1   1941   1942
  2194   3   1941   1970
  2195   1   1942   1943
  2196   1   1943   1944
  2197   3   1943   1971
  2198   3   1944   1972
  2199   1   1945   1946
  2200   1   1945   1950
  2201   1   1946   1947
  2202   3   1946   1973
  2203   1   1947   1948
  2204   3   1947   1974
  2205   1   1948   1949
  2206   2   1948   2077
  2207   1   1949   1950
  2208   3   1949   1975
  2209   3   1950   1976
  2210   1   1951   1952
  2211   1   1951   1956
  2212   3   1951   1977
  2213   1   1952   1953
  2214   3   1952   1978
  2215   1   1953   1954
  2216   2   1953   2143
  2217   1   1954   1955
  2218   3   1954   1979
  2219   1   1955   1956
  2220   3   1955   1980
  2221   1   1981   1982
  2222   1   1981   1986
  2223   2   1981   2066
  2224   1   1982   1983
  2225   3   1982   1987
  2226   1   1983   1984
  2227   3   1983   1988
  2228   1   1984   1985
  2229   4   1984   1997
  2230   1   1985   1986
  2231   3   1985   1989
  2232   3   1986   1990
  2233   1   1991   1992
  2234   1   1991   1996
  2235   3   1991   2029
  2236   1   1992   1993
  2237   4   1992   1997
  2238   1   1993   1994
  2239   3   1993   2030
  2240   1   1994   1995
  2241   1   1995   1996
  2242   3   1996   2032
  2243   4   1998   1997
  2244   4   2009   1997
  2245   1   1998   1999
  2246   1   1998   2003
  2247   3   2000   2034
  2248   1   2001   2002
  2249   1   2002   2003
  2250   3   2002   2035
  2251   3   2003   2036
  2252   1   2004   2005
  2253   1   2004   2009
  2254   3   2004   2037
  2255   1   2005   2006
  2256   3   2005   2038
  2257   1   2006   2007
  2258   4   2006   2010
  2259   1   2007   2008
  2260   3   2007   2039
  2261   1   2008   2009
  2262   3   2008   2040
  2263   4   2014   2010
  2264   4   2017   2010
  2265   4   2028   2010
  2266   1   2011   2016
  2267   2   2011   2054
  2268   1   2012   2013
  2269   3   2012   2041
  2270   1   2013   2014
  2271   3   2013   2042
  2272   1   2015   2016
  2273   3   2015   2043
  2274   3   2016   2044
  2275   1   2017   2018
  2276   1   2018   2019
  2277   3   2018   2045
  2278   1   2020   2021
  2279   1   2021   2022
  2280   3   2021   2047
  2281   3   2022   2048
  2282   1   2023   2024
  2283   1   2023   2028
  2284   3   2023   2049
  2285   1   2024   2025
  2286   3   2024   2050
  2287   1   2025   2026
  2288   2   2025   2083
  2289   1   2026   2027
  2290   3   2026   2051
  2291   1   2027   2028
  2292   3   2027   2052
  2293   5   2053   2054
  2294   6   2055   2053
  2295   6   2056   2053
  2296   6   2057   2054
  2297   6   2058   2054
  2298   5   2059   2060
  2299   6   2061   2059
  2300   6   2062   2059
  2301   6   2063   2060
  2302   6   2064   2060
  2303   5   2065   2066
  2304   6   2067   2065
  2305   6   2068   2065
  2306   6   2069   2066
  2307   6   2070   2066
  2308   5   2071   2072
  2309   6   2073   2071
  2310   6   2074   2071
  2311   6   2075   2072
  2312   6   2076   2072
  2313   5   2077   2078
  2314   6   2079   2077
  2315   6   2080   2077
  2316   6   2082   2078
  2317   5   2083   2084
  2318   6   2085   2083
  2319   6   2086   2083
  2320   6   2087   2084
  2321   6   2088   2084
  2322   5   2089   2090
  2323   6   2091   2089
  2324   6   2092   2089
  2325   6   2093   2090
  2326   6   2094   2090
  2327   5   2095   2096
  2328   6   2097   2095
  2329   6   2098   2095
  2330   6   2099   2096
  2331   6   2100   2096
  2332   5   2101   2102
  2333   6   2103   2101
  2334   6   2104   2101
  2335   6   2105   2102
  2336   6   2106   2102
  2337   5   2107   2108
  2338   6   2109   2107
  2339   6   2110   2107
  2340   6   2111   2108
  2341   6   2112   2108
  2342   5   2113   2114
  2343   6   2115   2113
  2344   6   2116   2113
  2345   6   2117   2114
  2346   6   2118   2114
  2347   5   2119   2120
  2348   6   2121   2119
  2349   6   2122   2119
  2350   6   2123   2120
  2351   5   2125   2126
  2352   6   2127   2125
  2353   6   2128   2125
  2354   6   2129   2126
  2355   6   2130   2126
  2356   5   2131   2132
  2357   6   2133   2131
  2358   6   2134   2131
  2359   6   2135   2132
  2360   6   2136   2132
  2361   5   2137   2138
  2362   6   2139   2137
  2363   5   2143   2144
  2364   6   2145   2143
  2365   6   2146   2143
  2366   6   2147   2144
  2367   6   2148   2144
  2368   6   2151   2149
  2369   6   2152   2149
  2370   6   2153   2150
  2371   6   2154   2150
  2372   5   2155   2156
  2373   6   2157   2155
  2374   6   2158   2155
  2375   6   2159   2156
  2376   6   2160   2156

Angles

     1   1      2      1      6
     2   2      2      1    506
     3   2      6      1    506
     4   1      1      2      3
     5   3      1      2      7
     6   3      3      2      7
     7   1      2      3      4
     8   3      2      3      8
     9   3      4      3      8
    10   1      3      4      5
    11   4      3      4    557
    12   4      5      4    557
    13   1      4      5      6
    14   3      4      5    549
    15   3      6      5    549
    16   1      1      6      5
    17   3      1      6     10
    18   3      5      6     10
    19   1     12     11     16
    20   3     12     11     49
    21   3     16     11     49
    22   1     11     12     13
    23   4     11     12     17
    24   4     13     12     17
    25   1     12     13     14
    26   3     12     13     50
    27   3     14     13     50
    28   1     13     14     15
    29   3     13     14     51
    30   3     15     14     51
    31   1     14     15     16
    32   2     14     15    524
    33   2     16     15    524
    34   1     11     16     15
    35   3     11     16     52
    36   3     15     16     52
    37   5    544     17     12
    38   5    544     17     18
    39   5    544     17     29
    40   5     12     17     18
    41   5     12     17     29
    42   5     18     17     29
    43   4    559     18     17
    44   4     23     18     17
    45   1    559     18     23
    46   1    558     19    560
    47   3    558     19     53
    48   3    560     19     53
    49   1    559     20     21
    50   3    559     20    594
    51   3     21     20    594
    52   1     20     21     22
    53   2     20     21    511
    54   2     22     21    511
    55   1     21     22     23
    56   3     21     22     55
    57   3     23     22     55
    58   1     18     23     22
    59   3     18     23     56
    60   3     22     23     56
    61   1     25     24     29
    62   3     25     24     57
    63   3     29     24     57
    64   1     24     25     26
    65   3     24     25     58
    66   3     26     25     58
    67   1     25     26    567
    68   4     25     26     30
    69   4    567     26     30
    70   1    566     27     28
    71   3    566     27     59
    72   3     28     27     59
    73   1     27     28    569
    74   3     27     28     60
    75   3    569     28     60
    76   1    568     29     24
    77   4    568     29     17
    78   4     24     29     17
    79   5     26     30     34
    80   5     26     30     37
    81   5     26     30     48
    82   5     34     30     37
    83   5     34     30     48
    84   5     37     30     48
    85   1     32     31     36
    86   2     32     31    535
    87   2     36     31    535
    88   1     31     32     33
    89   3     31     32     61
    90   3     33     32     61
    91   1     32     33     34
    92   3     32     33     62
    93   3     34     33     62
    94   4     33     34     30
    95   1     33     34     35
    96   4     35     34     30
    97   1     34     35     36
    98   3     34     35     63
    99   3     36     35     63
   100   1     35     36     31
   101   3     35     36     64
   102   3     31     36     64
   103   4    578     37     30
   104   4     42     37     30
   105   1    578     37     42
   106   1    577     38     39
   107   3    577     38     65
   108   3     39     38     65
   109   1     38     39    580
   110   3     38     39   1146
   111   3    580     39   1146
   112   1    579     40     41
   113   2    579     40   1597
   114   2     41     40   1597
   115   1     40     41     42
   116   3     40     41     67
   117   3     42     41     67
   118   1     41     42     37
   119   3     41     42     68
   120   3     37     42     68
   121   1    584     43     48
   122   3    584     43     69
   123   3     48     43     69
   124   1    583     44     45
   125   3    583     44     70
   126   3     45     44     70
   127   1     44     45     46
   128   2     44     45    529
   129   2     46     45    529
   130   1     45     46    587
   131   3     45     46     71
   132   3    587     46     71
   133   1    586     47     48
   134   3    586     47     72
   135   3     48     47     72
   136   4     47     48     30
   137   1     47     48     43
   138   4     43     48     30
   139   1     74     73     78
   140   2     74     73    476
   141   2     78     73    476
   142   1     73     74     75
   143   3     73     74     79
   144   3     75     74     79
   145   1     74     75   1156
   146   3     74     75     80
   147   3   1156     75     80
   148   1   1155     76     77
   149   4   1155     76     89
   150   4     77     76     89
   151   1     76     77   1158
   152   3     76     77     81
   153   3   1158     77     81
   154   1     73     78   1157
   155   3     73     78     82
   156   3   1157     78     82
   157   1     84     83     88
   158   3     84     83    121
   159   3     88     83    121
   160   1     83     84     85
   161   4     83     84     89
   162   4     85     84     89
   163   1     84     85     86
   164   3     84     85    122
   165   3     86     85    122
   166   1     85     86     87
   167   3     85     86    123
   168   3     87     86    123
   169   1     86     87     88
   170   2     86     87    494
   171   2     88     87    494
   172   1     87     88     83
   173   3     87     88    124
   174   3     83     88    124
   175   5     76     89     84
   176   5     76     89     90
   177   5     76     89    101
   178   5     84     89     90
   179   5     84     89    101
   180   5     90     89    101
   181   4     91     90     89
   182   4     95     90     89
   183   1     91     90     95
   184   1     90     91     92
   185   3     90     91    125
   186   3     92     91    125
   187   1     91     92     93
   188   3     91     92    126
   189   3     93     92    126
   190   1     92     93     94
   191   2     92     93    481
   192   2     94     93    481
   193   1     93     94     95
   194   3     93     94    127
   195   3     95     94    127
   196   1     94     95     90
   197   3     94     95    128
   198   3     90     95    128
   199   1     97     96    101
   200   3     97     96    129
   201   3    101     96    129
   202   1     96     97   1178
   203   3     96     97    130
   204   3   1178     97    130
   205   1   1177     98     99
   206   4   1177     98   1182
   207   4     99     98   1182
   208   1     98     99    100
   209   3     98     99    131
   210   3    100     99    131
   211   1     99    100   1181
   212   3     99    100    132
   213   3   1181    100    132
   214   1     96    101   1180
   215   4     96    101     89
   216   4   1180    101     89
   217   5   1178    102    106
   218   5   1178    102   1189
   219   5   1178    102   1200
   220   5    106    102   1189
   221   5    106    102   1200
   222   5   1189    102   1200
   223   1    104    103    108
   224   2    104    103    536
   225   2    108    103    536
   226   1    103    104    105
   227   3    103    104    133
   228   3    105    104    133
   229   1    104    105    106
   230   3    104    105    134
   231   3    106    105    134
   232   4    105    106    102
   233   1    105    106    107
   234   4    107    106    102
   235   1    106    107    108
   236   3    106    107    135
   237   3    108    107    135
   238   1    107    108    103
   239   3    107    108    136
   240   3    103    108    136
   241   4    110    109   1182
   242   4   1194    109   1182
   243   1    110    109   1194
   244   1    109    110    651
   245   3    109    110    137
   246   3    651    110    137
   247   1    650    111    112
   248   3    650    111    138
   249   3    112    111    138
   250   1    111    112    113
   251   2    111    112    487
   252   2    113    112    487
   253   1    112    113   1734
   254   3    112    113   1219
   255   3   1734    113   1219
   256   1   1733    114   1189
   257   3   1733    114    140
   258   3   1189    114    140
   259   1   1196    115   1200
   260   3   1196    115    141
   261   3   1200    115    141
   262   1   1195    116    117
   263   3   1195    116   1222
   264   3    117    116   1222
   265   1    116    117    118
   266   2    116    117    499
   267   2    118    117    499
   268   1    117    118    119
   269   3    117    118    143
   270   3    119    118    143
   271   1    118    119    120
   272   3    118    119    144
   273   3    120    119    144
   274   1    119    120   1195
   275   4    119    120   1182
   276   4   1195    120   1182
   277   1    146    145    150
   278   2    146    145    512
   279   2    150    145    512
   280   1    145    146    147
   281   3    145    146    151
   282   3    147    146    151
   283   1    146    147    148
   284   3    146    147    152
   285   3    148    147    152
   286   1    147    148    149
   287   4    147    148    161
   288   4    149    148    161
   289   1    148    149    150
   290   3    148    149    153
   291   3    150    149    153
   292   1    149    150    145
   293   3    149    150    154
   294   3    145    150    154
   295   1    156    155    160
   296   3    156    155    193
   297   3    160    155    193
   298   1    155    156    157
   299   4    155    156    161
   300   4    157    156    161
   301   1    156    157    158
   302   3    156    157    194
   303   3    158    157    194
   304   1    157    158    159
   305   3    157    158    195
   306   3    159    158    195
   307   1    158    159    160
   308   2    158    159    464
   309   2    160    159    464
   310   1    159    160    155
   311   3    159    160    196
   312   3    155    160    196
   313   5    148    161    156
   314   5    148    161    162
   315   5    148    161    173
   316   5    156    161    162
   317   5    156    161    173
   318   5    162    161    173
   319   4    163    162    161
   320   4    167    162    161
   321   1    163    162    167
   322   1    162    163    164
   323   3    162    163    197
   324   3    164    163    197
   325   1    163    164    165
   326   3    163    164    198
   327   3    165    164    198
   328   1    164    165    166
   329   2    164    165    505
   330   2    166    165    505
   331   1    165    166    167
   332   3    165    166    199
   333   3    167    166    199
   334   1    162    167    166
   335   3    162    167    200
   336   3    166    167    200
   337   1    169    168    173
   338   3    169    168    201
   339   3    173    168    201
   340   1    168    169    170
   341   3    168    169    202
   342   3    170    169    202
   343   1    169    170    171
   344   4    169    170    174
   345   4    171    170    174
   346   1    170    171    172
   347   3    170    171    203
   348   3    172    171    203
   349   1    171    172    173
   350   3    171    172    204
   351   3    173    172    204
   352   1    168    173    172
   353   4    168    173    161
   354   4    172    173    161
   355   5    170    174    178
   356   5    170    174    181
   357   5    170    174    192
   358   5    178    174    181
   359   5    178    174    192
   360   5    181    174    192
   361   1    176    175    180
   362   2    176    175    469
   363   2    180    175    469
   364   1    175    176    177
   365   3    175    176    205
   366   3    177    176    205
   367   1    176    177    178
   368   3    176    177    206
   369   3    178    177    206
   370   4    177    178    174
   371   1    177    178    179
   372   4    179    178    174
   373   1    178    179    180
   374   3    178    179    207
   375   3    180    179    207
   376   1    175    180    179
   377   3    175    180    208
   378   3    179    180    208
   379   4    182    181    174
   380   4    186    181    174
   381   1    182    181    186
   382   1    181    182    183
   383   3    181    182    209
   384   3    183    182    209
   385   1    182    183    184
   386   3    182    183    210
   387   3    184    183    210
   388   1    183    184    185
   389   2    183    184    458
   390   2    185    184    458
   391   1    184    185    186
   392   3    184    185    211
   393   3    186    185    211
   394   1    181    186    185
   395   3    181    186    212
   396   3    185    186    212
   397   1    188    187    192
   398   3    188    187    213
   399   3    192    187    213
   400   1    187    188    189
   401   3    187    188    214
   402   3    189    188    214
   403   1    188    189    190
   404   2    188    189    493
   405   2    190    189    493
   406   1    189    190    191
   407   3    189    190    215
   408   3    191    190    215
   409   1    190    191    192
   410   3    190    191    216
   411   3    192    191    216
   412   1    187    192    191
   413   4    187    192    174
   414   4    191    192    174
   415   1    218    217    222
   416   2    218    217    440
   417   2    222    217    440
   418   1    217    218    219
   419   3    217    218    223
   420   3    219    218    223
   421   1    218    219    220
   422   3    218    219    224
   423   3    220    219    224
   424   1    219    220    221
   425   4    219    220    233
   426   4    221    220    233
   427   1    220    221    222
   428   3    220    221    225
   429   3    222    221    225
   430   1    217    222    221
   431   3    217    222    226
   432   3    221    222    226
   433   1    228    227    232
   434   3    228    227    265
   435   3    232    227    265
   436   1    227    228    229
   437   4    227    228    233
   438   4    229    228    233
   439   1    228    229    230
   440   3    228    229    266
   441   3    230    229    266
   442   1    229    230    231
   443   3    229    230    267
   444   3    231    230    267
   445   1    230    231    232
   446   2    230    231    530
   447   2    232    231    530
   448   1    227    232    231
   449   3    227    232    268
   450   3    231    232    268
   451   5    220    233    228
   452   5    220    233    234
   453   5    220    233    245
   454   5    228    233    234
   455   5    228    233    245
   456   5    234    233    245
   457   4    235    234    233
   458   4    239    234    233
   459   1    235    234    239
   460   1    234    235    776
   461   3    234    235    269
   462   3    776    235    269
   463   1    775    236    777
   464   3    775    236    270
   465   3    777    236    270
   466   1    776    237    238
   467   2    776    237    985
   468   2    238    237    985
   469   1    237    238    239
   470   3    237    238    271
   471   3    239    238    271
   472   1    238    239    234
   473   3    238    239    272
   474   3    234    239    272
   475   1    241    240    245
   476   3    241    240    273
   477   3    245    240    273
   478   1    240    241    242
   479   3    240    241    274
   480   3    242    241    274
   481   1    241    242    243
   482   4    241    242    246
   483   4    243    242    246
   484   1    242    243    244
   485   3    242    243    275
   486   3    244    243    275
   487   1    243    244    245
   488   3    243    244    276
   489   3    245    244    276
   490   4    244    245    233
   491   4    240    245    233
   492   1    244    245    240
   493   5    242    246    790
   494   5    242    246    793
   495   5    242    246    264
   496   5    790    246    793
   497   5    790    246    264
   498   5    793    246    264
   499   1    248    247    252
   500   2    248    247    470
   501   2    252    247    470
   502   1    247    248    789
   503   3    247    248    817
   504   3    789    248    817
   505   1    788    249    790
   506   3    788    249    278
   507   3    790    249    278
   508   4    789    250    786
   509   1    789    250    251
   510   4    251    250    786
   511   1    250    251    252
   512   3    250    251    279
   513   3    252    251    279
   514   1    251    252    247
   515   3    251    252    280
   516   3    247    252    280
   517   4    254    253    786
   518   4    258    253    786
   519   1    254    253    258
   520   1    253    254    255
   521   3    253    254    821
   522   3    255    254    821
   523   1    254    255    256
   524   3    254    255    282
   525   3    256    255    282
   526   1    255    256    257
   527   2    255    256    488
   528   2    257    256    488
   529   1    256    257    258
   530   3    256    257    283
   531   3    258    257    283
   532   1    253    258    257
   533   3    253    258    284
   534   3    257    258    284
   535   1    800    259    804
   536   3    800    259    285
   537   3    804    259    285
   538   1    799    260    261
   539   3    799    260    826
   540   3    261    260    826
   541   1    260    261    262
   542   2    260    261    451
   543   2    262    261    451
   544   1    261    262    263
   545   3    261    262    287
   546   3    263    262    287
   547   1    262    263    264
   548   3    262    263    288
   549   3    264    263    288
   550   4    263    264    246
   551   1    263    264    799
   552   4    799    264    246
   553   1    290    289    294
   554   2    290    289    482
   555   2    294    289    482
   556   1    289    290    291
   557   3    289    290    295
   558   3    291    290    295
   559   1    290    291    292
   560   3    290    291    296
   561   3    292    291    296
   562   1    291    292    293
   563   4    291    292    305
   564   4    293    292    305
   565   1    292    293    294
   566   3    292    293    297
   567   3    294    293    297
   568   1    289    294    293
   569   3    289    294    298
   570   3    293    294    298
   571   1    300    299    304
   572   3    300    299    337
   573   3    304    299    337
   574   1    299    300    301
   575   4    299    300    305
   576   4    301    300    305
   577   1    300    301    302
   578   3    300    301    338
   579   3    302    301    338
   580   1    301    302    303
   581   3    301    302    339
   582   3    303    302    339
   583   1    302    303    304
   584   2    302    303    452
   585   2    304    303    452
   586   1    303    304    299
   587   3    303    304    340
   588   3    299    304    340
   589   5    292    305    300
   590   5    292    305    306
   591   5    292    305    317
   592   5    300    305    306
   593   5    300    305    317
   594   5    306    305    317
   595   4    307    306    305
   596   4    311    306    305
   597   1    307    306    311
   598   1    306    307    308
   599   3    306    307    341
   600   3    308    307    341
   601   1    307    308    309
   602   3    307    308    342
   603   3    309    308    342
   604   1    308    309    310
   605   2    308    309    475
   606   2    310    309    475
   607   1    309    310    311
   608   3    309    310    343
   609   3    311    310    343
   610   1    310    311    306
   611   3    310    311    344
   612   3    306    311    344
   613   1    313    312    317
   614   3    313    312    345
   615   3    317    312    345
   616   1    312    313    314
   617   3    312    313    346
   618   3    314    313    346
   619   1    313    314    315
   620   4    313    314    318
   621   4    315    314    318
   622   1    314    315    316
   623   3    314    315    347
   624   3    316    315    347
   625   1    315    316    317
   626   3    315    316    348
   627   3    317    316    348
   628   4    316    317    305
   629   1    316    317    312
   630   4    312    317    305
   631   5    314    318    322
   632   5    314    318    325
   633   5    314    318    336
   634   5    322    318    325
   635   5    322    318    336
   636   5    325    318    336
   637   1    320    319    324
   638   2    320    319    433
   639   2    324    319    433
   640   1    319    320    321
   641   3    319    320    349
   642   3    321    320    349
   643   1    320    321    322
   644   3    320    321    350
   645   3    322    321    350
   646   4    321    322    318
   647   4    323    322    318
   648   1    321    322    323
   649   1    322    323    324
   650   3    322    323    351
   651   3    324    323    351
   652   1    323    324    319
   653   3    323    324    352
   654   3    319    324    352
   655   4    326    325    318
   656   4    330    325    318
   657   1    326    325    330
   658   1    325    326    327
   659   3    325    326    353
   660   3    327    326    353
   661   1    326    327    328
   662   3    326    327    354
   663   3    328    327    354
   664   1    327    328    329
   665   2    327    328    457
   666   2    329    328    457
   667   1    328    329    330
   668   3    328    329    355
   669   3    330    329    355
   670   1    329    330    325
   671   3    329    330    356
   672   3    325    330    356
   673   1    332    331    336
   674   3    332    331    357
   675   3    336    331    357
   676   1    331    332    333
   677   3    331    332    358
   678   3    333    332    358
   679   1    332    333    334
   680   2    332    333    523
   681   2    334    333    523
   682   1    333    334    335
   683   3    333    334    359
   684   3    335    334    359
   685   1    334    335    336
   686   3    334    335    360
   687   3    336    335    360
   688   4    335    336    318
   689   1    335    336    331
   690   4    331    336    318
   691   1    362    361    366
   692   2    362    361    446
   693   2    366    361    446
   694   1    361    362    363
   695   3    361    362    367
   696   3    363    362    367
   697   1    362    363    364
   698   3    362    363    368
   699   3    364    363    368
   700   1    363    364    365
   701   4    363    364    377
   702   4    365    364    377
   703   1    364    365    366
   704   3    364    365    369
   705   3    366    365    369
   706   1    361    366    365
   707   3    361    366    370
   708   3    365    366    370
   709   1    372    371    376
   710   3    372    371    409
   711   3    376    371    409
   712   1    371    372    373
   713   4    371    372    377
   714   4    373    372    377
   715   1    372    373    374
   716   3    372    373    410
   717   3    374    373    410
   718   1    373    374    375
   719   3    373    374   1491
   720   3    375    374   1491
   721   1    374    375    376
   722   2    374    375   1580
   723   2    376    375   1580
   724   1    375    376    371
   725   3    375    376    412
   726   3    371    376    412
   727   5    364    377    372
   728   5    364    377    378
   729   5    364    377    389
   730   5    372    377    378
   731   5    372    377    389
   732   5    378    377    389
   733   4    379    378    377
   734   4    383    378    377
   735   1    379    378    383
   736   1    378    379   1460
   737   3    378    379   1493
   738   3   1460    379   1493
   739   1   1459    380   1461
   740   3   1459    380    414
   741   3   1461    380    414
   742   1   1460    381    382
   743   2   1460    381   1519
   744   2    382    381   1519
   745   1    381    382    383
   746   3    381    382    415
   747   3    383    382    415
   748   1    378    383    382
   749   3    378    383    416
   750   3    382    383    416
   751   1    385    384    389
   752   3    385    384    417
   753   3    389    384    417
   754   1    384    385    386
   755   3    384    385    418
   756   3    386    385    418
   757   1    385    386    387
   758   4    385    386    390
   759   4    387    386    390
   760   1    386    387    388
   761   3    386    387    419
   762   3    388    387    419
   763   1    387    388    389
   764   3    387    388    420
   765   3    389    388    420
   766   1    388    389    384
   767   4    388    389    377
   768   4    384    389    377
   769   5    386    390    394
   770   5    386    390    397
   771   5    386    390    408
   772   5    394    390    397
   773   5    394    390    408
   774   5    397    390    408
   775   1   1472    391    396
   776   2   1472    391    434
   777   2    396    391    434
   778   1   1471    392    393
   779   3   1471    392    421
   780   3    393    392    421
   781   1    392    393    394
   782   3    392    393    422
   783   3    394    393    422
   784   4    393    394    390
   785   4   1475    394    390
   786   1    393    394   1475
   787   1   1474    395    396
   788   3   1474    395    423
   789   3    396    395    423
   790   1    395    396    391
   791   3    395    396    424
   792   3    391    396    424
   793   4    398    397    390
   794   4   1482    397    390
   795   1    398    397   1482
   796   1    397    398    399
   797   3    397    398    425
   798   3    399    398    425
   799   1    398    399   1480
   800   3    398    399    966
   801   3   1480    399    966
   802   1   1479    400    401
   803   2   1479    400   1058
   804   2    401    400   1058
   805   1    400    401    402
   806   3    400    401    427
   807   3    402    401    427
   808   1    401    402   1477
   809   3    401    402    428
   810   3   1477    402    428
   811   1    404    403    408
   812   3    404    403    429
   813   3    408    403    429
   814   1    403    404    405
   815   3    403    404    430
   816   3    405    404    430
   817   1    404    405    406
   818   2    404    405    463
   819   2    406    405    463
   820   1    405    406    407
   821   3    405    406    431
   822   3    407    406    431
   823   1    406    407    408
   824   3    406    407    432
   825   3    408    407    432
   826   4    403    408    390
   827   4    407    408    390
   828   1    403    408    407
   829   6    319    433    434
   830   7    319    433    435
   831   7    319    433    436
   832   8    435    433    434
   833   8    436    433    434
   834   9    435    433    436
   835   6    391    434    433
   836   8    437    434    433
   837   8    438    434    433
   838   7    391    434    437
   839   7    391    434    438
   840   9    437    434    438
   841   6   1461    439    440
   842   7   1461    439    441
   843   7   1461    439    442
   844   8    441    439    440
   845   8    442    439    440
   846   9    441    439    442
   847   6    217    440    439
   848   7    217    440    443
   849   7    217    440    444
   850   8    443    440    439
   851   8    444    440    439
   852   9    443    440    444
   853   6    777    445    446
   854   7    777    445    447
   855   7    777    445    448
   856   8    447    445    446
   857   8    448    445    446
   858   9    447    445    448
   859   6    361    446    445
   860   8    449    446    445
   861   8    450    446    445
   862   7    361    446    449
   863   7    361    446    450
   864   9    449    446    450
   865   6    261    451    452
   866   7    261    451    453
   867   7    261    451    454
   868   8    453    451    452
   869   8    454    451    452
   870   9    453    451    454
   871   6    303    452    451
   872   7    303    452    455
   873   7    303    452    456
   874   8    455    452    451
   875   8    456    452    451
   876   9    455    452    456
   877   6    328    457    458
   878   7    328    457    459
   879   7    328    457    460
   880   8    459    457    458
   881   8    460    457    458
   882   9    459    457    460
   883   6    184    458    457
   884   7    184    458   1001
   885   7    184    458    462
   886   8   1001    458    457
   887   8    462    458    457
   888   9   1001    458    462
   889   6    405    463    464
   890   7    405    463    465
   891   7    405    463    466
   892   8    465    463    464
   893   8    466    463    464
   894   9    465    463    466
   895   6    159    464    463
   896   8    467    464    463
   897   8    468    464    463
   898   7    159    464    467
   899   7    159    464    468
   900   9    467    464    468
   901   6    175    469    470
   902   7    175    469    471
   903   7    175    469    472
   904   8    471    469    470
   905   8    472    469    470
   906   9    471    469    472
   907   6    247    470    469
   908   7    247    470    473
   909   7    247    470    474
   910   8    473    470    469
   911   8    474    470    469
   912   9    473    470    474
   913   6    309    475    476
   914   7    309    475    477
   915   7    309    475    478
   916   8    477    475    476
   917   8    478    475    476
   918   9    477    475    478
   919   6     73    476    475
   920   7     73    476    479
   921   7     73    476    480
   922   8    479    476    475
   923   8    480    476    475
   924   9    479    476    480
   925   6     93    481    482
   926   7     93    481    483
   927   7     93    481    484
   928   8    483    481    482
   929   8    484    481    482
   930   9    483    481    484
   931   6    289    482    481
   932   7    289    482    485
   933   7    289    482    486
   934   8    485    482    481
   935   8    486    482    481
   936   9    485    482    486
   937   6    112    487    488
   938   7    112    487    489
   939   7    112    487    490
   940   8    489    487    488
   941   8    490    487    488
   942   9    489    487    490
   943   6    256    488    487
   944   8    491    488    487
   945   8    492    488    487
   946   7    256    488    491
   947   7    256    488    492
   948   9    491    488    492
   949   6    189    493    494
   950   7    189    493    495
   951   7    189    493    496
   952   8    495    493    494
   953   8    496    493    494
   954   9    495    493    496
   955   6     87    494    493
   956   7     87    494    497
   957   7     87    494    498
   958   8    497    494    493
   959   8    498    494    493
   960   9    497    494    498
   961   6    117    499    500
   962   7    117    499    501
   963   7    117    499    502
   964   8    501    499    500
   965   8    502    499    500
   966   9    501    499    502
   967   6   1455    500    499
   968   7   1455    500    503
   969   7   1455    500   1584
   970   8    503    500    499
   971   8   1584    500    499
   972   9    503    500   1584
   973   6    165    505    506
   974   7    165    505    507
   975   7    165    505    508
   976   8    507    505    506
   977   8    508    505    506
   978   9    507    505    508
   979   6      1    506    505
   980   7      1    506    509
   981   7      1    506    510
   982   8    509    506    505
   983   8    510    506    505
   984   9    509    506    510
   985   6     21    511    512
   986   7     21    511    513
   987   7     21    511    514
   988   8    513    511    512
   989   8    514    511    512
   990   9    513    511    514
   991   6    145    512    511
   992   7    145    512    515
   993   7    145    512    516
   994   8    515    512    511
   995   8    516    512    511
   996   9    515    512    516
   997   6   1120    517    518
   998   7   1120    517    519
   999   7   1120    517   1060
  1000   8    519    517    518
  1001   8   1060    517    518
  1002   9    519    517   1060
  1003   6    940    518    517
  1004   7    940    518   1061
  1005   7    940    518   1602
  1006   8   1061    518    517
  1007   8   1602    518    517
  1008   9   1061    518   1602
  1009   6    333    523    524
  1010   7    333    523    525
  1011   7    333    523    526
  1012   8    525    523    524
  1013   8    526    523    524
  1014   9    525    523    526
  1015   6     15    524    523
  1016   8    527    524    523
  1017   8    528    524    523
  1018   7     15    524    527
  1019   7     15    524    528
  1020   9    527    524    528
  1021   6     45    529   1070
  1022   7     45    529    531
  1023   7     45    529    532
  1024   8    531    529   1070
  1025   8    532    529   1070
  1026   9    531    529    532
  1027   6    231    530   1069
  1028   7    231    530    533
  1029   7    231    530    534
  1030   8    533    530   1069
  1031   8    534    530   1069
  1032   9    533    530    534
  1033   6     31    535    536
  1034   7     31    535    537
  1035   7     31    535    538
  1036   8    537    535    536
  1037   8    538    535    536
  1038   9    537    535    538
  1039   6    103    536    535
  1040   7    103    536    539
  1041   7    103    536    540
  1042   8    539    536    535
  1043   8    540    536    535
  1044   9    539    536    540
  1045   1    542    541    546
  1046   2    542    541   1046
  1047   2    546    541   1046
  1048   1    541    542    543
  1049   3    541    542    547
  1050   3    543    542    547
  1051   1    542    543    544
  1052   3    542    543    548
  1053   3    544    543    548
  1054   1    543    544    545
  1055   4    543    544     17
  1056   4    545    544     17
  1057   1    544    545    546
  1058   3    544    545      9
  1059   3    546    545      9
  1060   1    541    546    545
  1061   3    541    546    550
  1062   3    545    546    550
  1063   1    552    551    556
  1064   3    552    551    589
  1065   3    556    551    589
  1066   1    551    552    553
  1067   4    551    552    557
  1068   4    553    552    557
  1069   1    552    553    554
  1070   3    552    553    590
  1071   3    554    553    590
  1072   1    553    554    555
  1073   3    553    554    591
  1074   3    555    554    591
  1075   1    554    555    556
  1076   2    554    555   1064
  1077   2    556    555   1064
  1078   1    551    556    555
  1079   3    551    556    592
  1080   3    555    556    592
  1081   5      4    557    552
  1082   5      4    557    558
  1083   5      4    557    569
  1084   5    552    557    558
  1085   5    552    557    569
  1086   5    558    557    569
  1087   4     19    558    557
  1088   4    563    558    557
  1089   1     19    558    563
  1090   1     18    559     20
  1091   3     18    559    593
  1092   3     20    559    593
  1093   1     19    560    561
  1094   3     19    560     54
  1095   3    561    560     54
  1096   1    560    561    562
  1097   2    560    561   1051
  1098   2    562    561   1051
  1099   1    561    562    563
  1100   3    561    562    595
  1101   3    563    562    595
  1102   1    558    563    562
  1103   3    558    563    596
  1104   3    562    563    596
  1105   1    565    564    569
  1106   3    565    564    597
  1107   3    569    564    597
  1108   1    564    565    566
  1109   3    564    565    598
  1110   3    566    565    598
  1111   1    565    566     27
  1112   4    565    566    570
  1113   4     27    566    570
  1114   1     26    567    568
  1115   3     26    567    599
  1116   3    568    567    599
  1117   1    567    568     29
  1118   3    567    568    600
  1119   3     29    568    600
  1120   1     28    569    564
  1121   4     28    569    557
  1122   4    564    569    557
  1123   5    566    570    574
  1124   5    566    570    577
  1125   5    566    570    588
  1126   5    574    570    577
  1127   5    574    570    588
  1128   5    577    570    588
  1129   1    572    571    576
  1130   2    572    571   1075
  1131   2    576    571   1075
  1132   1    571    572    573
  1133   3    571    572    601
  1134   3    573    572    601
  1135   1    572    573    574
  1136   3    572    573    602
  1137   3    574    573    602
  1138   4    573    574    570
  1139   1    573    574    575
  1140   4    575    574    570
  1141   1    574    575    576
  1142   3    574    575    603
  1143   3    576    575    603
  1144   1    575    576    571
  1145   3    575    576    604
  1146   3    571    576    604
  1147   4     38    577    570
  1148   4    582    577    570
  1149   1     38    577    582
  1150   1     37    578    579
  1151   3     37    578    605
  1152   3    579    578    605
  1153   1    578    579     40
  1154   3    578    579   1686
  1155   3     40    579   1686
  1156   1     39    580    581
  1157   2     39    580   2137
  1158   2    581    580   2137
  1159   1    580    581    582
  1160   3    580    581    607
  1161   3    582    581    607
  1162   1    581    582    577
  1163   3    581    582    608
  1164   3    577    582    608
  1165   1     44    583    588
  1166   3     44    583    609
  1167   3    588    583    609
  1168   1     43    584    585
  1169   3     43    584    610
  1170   3    585    584    610
  1171   1    584    585    586
  1172   2    584    585   1069
  1173   2    586    585   1069
  1174   1    585    586     47
  1175   3    585    586    611
  1176   3     47    586    611
  1177   1     46    587    588
  1178   3     46    587    612
  1179   3    588    587    612
  1180   4    587    588    570
  1181   1    587    588    583
  1182   4    583    588    570
  1183   1    614    613    618
  1184   2    614    613   1016
  1185   2    618    613   1016
  1186   1    613    614    615
  1187   3    613    614    619
  1188   3    615    614    619
  1189   1    614    615   1696
  1190   3    614    615    620
  1191   3   1696    615    620
  1192   1   1695    616    617
  1193   4   1695    616    629
  1194   4    617    616    629
  1195   1    616    617   1698
  1196   3    616    617    621
  1197   3   1698    617    621
  1198   1    613    618   1697
  1199   3    613    618    622
  1200   3   1697    618    622
  1201   1    624    623    628
  1202   3    624    623    661
  1203   3    628    623    661
  1204   1    623    624    625
  1205   4    623    624    629
  1206   4    625    624    629
  1207   1    624    625    626
  1208   3    624    625    662
  1209   3    626    625    662
  1210   1    625    626    627
  1211   3    625    626    663
  1212   3    627    626    663
  1213   1    626    627    628
  1214   2    626    627   1034
  1215   2    628    627   1034
  1216   1    627    628    623
  1217   3    627    628    664
  1218   3    623    628    664
  1219   5    616    629    624
  1220   5    616    629    630
  1221   5    616    629    641
  1222   5    624    629    630
  1223   5    624    629    641
  1224   5    630    629    641
  1225   4    631    630    629
  1226   4    635    630    629
  1227   1    631    630    635
  1228   1    630    631    632
  1229   3    630    631    665
  1230   3    632    631    665
  1231   1    631    632    633
  1232   3    631    632    666
  1233   3    633    632    666
  1234   1    632    633    634
  1235   2    632    633   1021
  1236   2    634    633   1021
  1237   1    633    634    635
  1238   3    633    634    667
  1239   3    635    634    667
  1240   1    634    635    630
  1241   3    634    635    668
  1242   3    630    635    668
  1243   1    637    636    641
  1244   3    637    636    669
  1245   3    641    636    669
  1246   1    636    637   1718
  1247   3    636    637    670
  1248   3   1718    637    670
  1249   1   1717    638    639
  1250   4   1717    638   1722
  1251   4    639    638   1722
  1252   1    638    639    640
  1253   3    638    639    671
  1254   3    640    639    671
  1255   1    639    640   1721
  1256   3    639    640    672
  1257   3   1721    640    672
  1258   1    636    641   1720
  1259   4    636    641    629
  1260   4   1720    641    629
  1261   5   1718    642    646
  1262   5   1718    642   1729
  1263   5   1718    642   1740
  1264   5    646    642   1729
  1265   5    646    642   1740
  1266   5   1729    642   1740
  1267   1    644    643    648
  1268   2    644    643   1076
  1269   2    648    643   1076
  1270   1    643    644    645
  1271   3    643    644    673
  1272   3    645    644    673
  1273   1    644    645    646
  1274   3    644    645    674
  1275   3    646    645    674
  1276   4    645    646    642
  1277   1    645    646    647
  1278   4    647    646    642
  1279   1    646    647    648
  1280   3    646    647    675
  1281   3    648    647    675
  1282   1    647    648    643
  1283   3    647    648    676
  1284   3    643    648    676
  1285   4    650    649   1722
  1286   4   1734    649   1722
  1287   1    650    649   1734
  1288   1    649    650    111
  1289   3    649    650    677
  1290   3    111    650    677
  1291   1    110    651    652
  1292   3    110    651    678
  1293   3    652    651    678
  1294   1    651    652    653
  1295   2    651    652   1027
  1296   2    653    652   1027
  1297   1    652    653   1194
  1298   3    652    653   1759
  1299   3   1194    653   1759
  1300   1   1193    654   1729
  1301   3   1193    654    680
  1302   3   1729    654    680
  1303   1   1736    655   1740
  1304   3   1736    655    681
  1305   3   1740    655    681
  1306   1   1735    656    657
  1307   3   1735    656   1762
  1308   3    657    656   1762
  1309   1    656    657    658
  1310   2    656    657   1039
  1311   2    658    657   1039
  1312   1    657    658    659
  1313   3    657    658    683
  1314   3    659    658    683
  1315   1    658    659    660
  1316   3    658    659    684
  1317   3    660    659    684
  1318   1    659    660   1735
  1319   4    659    660   1722
  1320   4   1735    660   1722
  1321   1    686    685    690
  1322   2    686    685   1052
  1323   2    690    685   1052
  1324   1    685    686    687
  1325   3    685    686    691
  1326   3    687    686    691
  1327   1    686    687    688
  1328   3    686    687    692
  1329   3    688    687    692
  1330   1    687    688    689
  1331   4    687    688    701
  1332   4    689    688    701
  1333   1    688    689    690
  1334   3    688    689    693
  1335   3    690    689    693
  1336   1    689    690    685
  1337   3    689    690    694
  1338   3    685    690    694
  1339   1    696    695    700
  1340   3    696    695    733
  1341   3    700    695    733
  1342   1    695    696    697
  1343   4    695    696    701
  1344   4    697    696    701
  1345   1    696    697    698
  1346   3    696    697    734
  1347   3    698    697    734
  1348   1    697    698    699
  1349   3    697    698    735
  1350   3    699    698    735
  1351   1    698    699    700
  1352   2    698    699   1004
  1353   2    700    699   1004
  1354   1    699    700    695
  1355   3    699    700    736
  1356   3    695    700    736
  1357   5    688    701    696
  1358   5    688    701    702
  1359   5    688    701    713
  1360   5    696    701    702
  1361   5    696    701    713
  1362   5    702    701    713
  1363   4    703    702    701
  1364   4    707    702    701
  1365   1    703    702    707
  1366   1    702    703    704
  1367   3    702    703    737
  1368   3    704    703    737
  1369   1    703    704    705
  1370   3    703    704    738
  1371   3    705    704    738
  1372   1    704    705    706
  1373   2    704    705   1045
  1374   2    706    705   1045
  1375   1    705    706    707
  1376   3    705    706    739
  1377   3    707    706    739
  1378   1    702    707    706
  1379   3    702    707    740
  1380   3    706    707    740
  1381   1    709    708    713
  1382   3    709    708    741
  1383   3    713    708    741
  1384   1    708    709    710
  1385   3    708    709    742
  1386   3    710    709    742
  1387   1    709    710    711
  1388   4    709    710    714
  1389   4    711    710    714
  1390   1    710    711    712
  1391   3    710    711    743
  1392   3    712    711    743
  1393   1    711    712    713
  1394   3    711    712    744
  1395   3    713    712    744
  1396   1    708    713    712
  1397   4    708    713    701
  1398   4    712    713    701
  1399   5    710    714    718
  1400   5    710    714    721
  1401   5    710    714    732
  1402   5    718    714    721
  1403   5    718    714    732
  1404   5    721    714    732
  1405   1    716    715    720
  1406   2    716    715   1009
  1407   2    720    715   1009
  1408   1    715    716    717
  1409   3    715    716    745
  1410   3    717    716    745
  1411   1    716    717    718
  1412   3    716    717    746
  1413   3    718    717    746
  1414   4    717    718    714
  1415   1    717    718    719
  1416   4    719    718    714
  1417   1    718    719    720
  1418   3    718    719    747
  1419   3    720    719    747
  1420   1    715    720    719
  1421   3    715    720    748
  1422   3    719    720    748
  1423   4    722    721    714
  1424   4    726    721    714
  1425   1    722    721    726
  1426   1    721    722    723
  1427   3    721    722    749
  1428   3    723    722    749
  1429   1    722    723    724
  1430   3    722    723    750
  1431   3    724    723    750
  1432   1    723    724    725
  1433   2    723    724    998
  1434   2    725    724    998
  1435   1    724    725    726
  1436   3    724    725    751
  1437   3    726    725    751
  1438   1    721    726    725
  1439   3    721    726    752
  1440   3    725    726    752
  1441   1    728    727    732
  1442   3    728    727    753
  1443   3    732    727    753
  1444   1    727    728    729
  1445   3    727    728    754
  1446   3    729    728    754
  1447   1    728    729    730
  1448   2    728    729   1033
  1449   2    730    729   1033
  1450   1    729    730    731
  1451   3    729    730    755
  1452   3    731    730    755
  1453   1    730    731    732
  1454   3    730    731    756
  1455   3    732    731    756
  1456   1    727    732    731
  1457   4    727    732    714
  1458   4    731    732    714
  1459   1    758    757    762
  1460   2    758    757    980
  1461   2    762    757    980
  1462   1    757    758    759
  1463   3    757    758    763
  1464   3    759    758    763
  1465   1    758    759    760
  1466   3    758    759    764
  1467   3    760    759    764
  1468   1    759    760    761
  1469   4    759    760    773
  1470   4    761    760    773
  1471   1    760    761    762
  1472   3    760    761    765
  1473   3    762    761    765
  1474   1    757    762    761
  1475   3    757    762    766
  1476   3    761    762    766
  1477   1    768    767    772
  1478   3    768    767    805
  1479   3    772    767    805
  1480   1    767    768    769
  1481   4    767    768    773
  1482   4    769    768    773
  1483   1    768    769    770
  1484   3    768    769    806
  1485   3    770    769    806
  1486   1    769    770    771
  1487   3    769    770    807
  1488   3    771    770    807
  1489   1    770    771    772
  1490   2    770    771   1070
  1491   2    772    771   1070
  1492   1    767    772    771
  1493   3    767    772    808
  1494   3    771    772    808
  1495   5    760    773    768
  1496   5    760    773    774
  1497   5    760    773    785
  1498   5    768    773    774
  1499   5    768    773    785
  1500   5    774    773    785
  1501   4    775    774    773
  1502   4    779    774    773
  1503   1    775    774    779
  1504   1    774    775    236
  1505   3    774    775    809
  1506   3    236    775    809
  1507   1    235    776    237
  1508   3    235    776    810
  1509   3    237    776    810
  1510   1    236    777    778
  1511   2    236    777    445
  1512   2    778    777    445
  1513   1    777    778    779
  1514   3    777    778    811
  1515   3    779    778    811
  1516   1    778    779    774
  1517   3    778    779    812
  1518   3    774    779    812
  1519   1    781    780    785
  1520   3    781    780    813
  1521   3    785    780    813
  1522   1    780    781    782
  1523   3    780    781    814
  1524   3    782    781    814
  1525   1    781    782    783
  1526   4    781    782    786
  1527   4    783    782    786
  1528   1    782    783    784
  1529   3    782    783    815
  1530   3    784    783    815
  1531   1    783    784    785
  1532   3    783    784    816
  1533   3    785    784    816
  1534   4    784    785    773
  1535   4    780    785    773
  1536   1    784    785    780
  1537   5    782    786    250
  1538   5    782    786    253
  1539   5    782    786    804
  1540   5    250    786    253
  1541   5    250    786    804
  1542   5    253    786    804
  1543   1    788    787    792
  1544   2    788    787   1010
  1545   2    792    787   1010
  1546   1    787    788    249
  1547   3    787    788    277
  1548   3    249    788    277
  1549   1    248    789    250
  1550   3    248    789    818
  1551   3    250    789    818
  1552   4    249    790    246
  1553   1    249    790    791
  1554   4    791    790    246
  1555   1    790    791    792
  1556   3    790    791    819
  1557   3    792    791    819
  1558   1    791    792    787
  1559   3    791    792    820
  1560   3    787    792    820
  1561   4    794    793    246
  1562   4    798    793    246
  1563   1    794    793    798
  1564   1    793    794    795
  1565   3    793    794    281
  1566   3    795    794    281
  1567   1    794    795    796
  1568   3    794    795    822
  1569   3    796    795    822
  1570   1    795    796    797
  1571   2    795    796   1028
  1572   2    797    796   1028
  1573   1    796    797    798
  1574   3    796    797    823
  1575   3    798    797    823
  1576   1    793    798    797
  1577   3    793    798    824
  1578   3    797    798    824
  1579   1    260    799    264
  1580   3    260    799    825
  1581   3    264    799    825
  1582   1    259    800    801
  1583   3    259    800    286
  1584   3    801    800    286
  1585   1    800    801    802
  1586   2    800    801    991
  1587   2    802    801    991
  1588   1    801    802    803
  1589   3    801    802    827
  1590   3    803    802    827
  1591   1    802    803    804
  1592   3    802    803    828
  1593   3    804    803    828
  1594   4    803    804    786
  1595   1    803    804    259
  1596   4    259    804    786
  1597   1    830    829    834
  1598   2    830    829   1022
  1599   2    834    829   1022
  1600   1    829    830    831
  1601   3    829    830    835
  1602   3    831    830    835
  1603   1    830    831    832
  1604   3    830    831    836
  1605   3    832    831    836
  1606   1    831    832    833
  1607   4    831    832    845
  1608   4    833    832    845
  1609   1    832    833    834
  1610   3    832    833    837
  1611   3    834    833    837
  1612   1    829    834    833
  1613   3    829    834    838
  1614   3    833    834    838
  1615   1    840    839    844
  1616   3    840    839    877
  1617   3    844    839    877
  1618   1    839    840    841
  1619   4    839    840    845
  1620   4    841    840    845
  1621   1    840    841    842
  1622   3    840    841    878
  1623   3    842    841    878
  1624   1    841    842    843
  1625   3    841    842    879
  1626   3    843    842    879
  1627   1    842    843    844
  1628   2    842    843    992
  1629   2    844    843    992
  1630   1    843    844    839
  1631   3    843    844    880
  1632   3    839    844    880
  1633   5    832    845    840
  1634   5    832    845    846
  1635   5    832    845    857
  1636   5    840    845    846
  1637   5    840    845    857
  1638   5    846    845    857
  1639   4    847    846    845
  1640   4    851    846    845
  1641   1    847    846    851
  1642   1    846    847    848
  1643   3    846    847    881
  1644   3    848    847    881
  1645   1    847    848    849
  1646   3    847    848    882
  1647   3    849    848    882
  1648   1    848    849    850
  1649   2    848    849   1015
  1650   2    850    849   1015
  1651   1    849    850    851
  1652   3    849    850    883
  1653   3    851    850    883
  1654   1    850    851    846
  1655   3    850    851    884
  1656   3    846    851    884
  1657   1    853    852    857
  1658   3    853    852    885
  1659   3    857    852    885
  1660   1    852    853    854
  1661   3    852    853    886
  1662   3    854    853    886
  1663   1    853    854    855
  1664   4    853    854    858
  1665   4    855    854    858
  1666   1    854    855    856
  1667   3    854    855    887
  1668   3    856    855    887
  1669   1    855    856    857
  1670   3    855    856    888
  1671   3    857    856    888
  1672   4    856    857    845
  1673   1    856    857    852
  1674   4    852    857    845
  1675   5    854    858    862
  1676   5    854    858    865
  1677   5    854    858    876
  1678   5    862    858    865
  1679   5    862    858    876
  1680   5    865    858    876
  1681   1    860    859    864
  1682   2    860    859    973
  1683   2    864    859    973
  1684   1    859    860    861
  1685   3    859    860    889
  1686   3    861    860    889
  1687   1    860    861    862
  1688   3    860    861    890
  1689   3    862    861    890
  1690   4    861    862    858
  1691   4    863    862    858
  1692   1    861    862    863
  1693   1    862    863    864
  1694   3    862    863    891
  1695   3    864    863    891
  1696   1    863    864    859
  1697   3    863    864    892
  1698   3    859    864    892
  1699   4    866    865    858
  1700   4    870    865    858
  1701   1    866    865    870
  1702   1    865    866    867
  1703   3    865    866    893
  1704   3    867    866    893
  1705   1    866    867    868
  1706   3    866    867    894
  1707   3    868    867    894
  1708   1    867    868    869
  1709   2    867    868    997
  1710   2    869    868    997
  1711   1    868    869    870
  1712   3    868    869    895
  1713   3    870    869    895
  1714   1    869    870    865
  1715   3    869    870    896
  1716   3    865    870    896
  1717   1    872    871    876
  1718   3    872    871    897
  1719   3    876    871    897
  1720   1    871    872    873
  1721   3    871    872    898
  1722   3    873    872    898
  1723   1    872    873    874
  1724   2    872    873   1063
  1725   2    874    873   1063
  1726   1    873    874    875
  1727   3    873    874    899
  1728   3    875    874    899
  1729   1    874    875    876
  1730   3    874    875    900
  1731   3    876    875    900
  1732   4    875    876    858
  1733   1    875    876    871
  1734   4    871    876    858
  1735   1    902    901    906
  1736   2    902    901    986
  1737   2    906    901    986
  1738   1    901    902    903
  1739   3    901    902    907
  1740   3    903    902    907
  1741   1    902    903    904
  1742   3    902    903    908
  1743   3    904    903    908
  1744   1    903    904    905
  1745   4    903    904    917
  1746   4    905    904    917
  1747   1    904    905    906
  1748   3    904    905    909
  1749   3    906    905    909
  1750   1    901    906    905
  1751   3    901    906    910
  1752   3    905    906    910
  1753   1    912    911    916
  1754   3    912    911    949
  1755   3    916    911    949
  1756   1    911    912    913
  1757   4    911    912    917
  1758   4    913    912    917
  1759   1    912    913    914
  1760   3    912    913    950
  1761   3    914    913    950
  1762   1    913    914    915
  1763   3    913    914   2031
  1764   3    915    914   2031
  1765   1    914    915    916
  1766   2    914    915   2120
  1767   2    916    915   2120
  1768   1    915    916    911
  1769   3    915    916    952
  1770   3    911    916    952
  1771   5    904    917    912
  1772   5    904    917    918
  1773   5    904    917    929
  1774   5    912    917    918
  1775   5    912    917    929
  1776   5    918    917    929
  1777   4    919    918    917
  1778   4    923    918    917
  1779   1    919    918    923
  1780   1    918    919   2000
  1781   3    918    919   2033
  1782   3   2000    919   2033
  1783   1   1999    920   2001
  1784   3   1999    920    954
  1785   3   2001    920    954
  1786   1   2000    921    922
  1787   2   2000    921   2059
  1788   2    922    921   2059
  1789   1    921    922    923
  1790   3    921    922    955
  1791   3    923    922    955
  1792   1    918    923    922
  1793   3    918    923    956
  1794   3    922    923    956
  1795   1    925    924    929
  1796   3    925    924    957
  1797   3    929    924    957
  1798   1    924    925    926
  1799   3    924    925    958
  1800   3    926    925    958
  1801   1    925    926    927
  1802   4    925    926    930
  1803   4    927    926    930
  1804   1    926    927    928
  1805   3    926    927    959
  1806   3    928    927    959
  1807   1    927    928    929
  1808   3    927    928    960
  1809   3    929    928    960
  1810   1    928    929    924
  1811   4    928    929    917
  1812   4    924    929    917
  1813   5    926    930    934
  1814   5    926    930    937
  1815   5    926    930    948
  1816   5    934    930    937
  1817   5    934    930    948
  1818   5    937    930    948
  1819   1   2012    931    936
  1820   2   2012    931    974
  1821   2    936    931    974
  1822   1   2011    932    933
  1823   3   2011    932    961
  1824   3    933    932    961
  1825   1    932    933    934
  1826   3    932    933    962
  1827   3    934    933    962
  1828   4    933    934    930
  1829   4   2015    934    930
  1830   1    933    934   2015
  1831   1   2014    935    936
  1832   3   2014    935    963
  1833   3    936    935    963
  1834   1    935    936    931
  1835   3    935    936    964
  1836   3    931    936    964
  1837   4    938    937    930
  1838   4   2022    937    930
  1839   1    938    937   2022
  1840   1    937    938    939
  1841   3    937    938    965
  1842   3    939    938    965
  1843   1    938    939   2020
  1844   3    938    939    426
  1845   3   2020    939    426
  1846   1   2019    940    941
  1847   2   2019    940    518
  1848   2    941    940    518
  1849   1    940    941    942
  1850   3    940    941    967
  1851   3    942    941    967
  1852   1    941    942   2017
  1853   3    941    942    968
  1854   3   2017    942    968
  1855   1    944    943    948
  1856   3    944    943    969
  1857   3    948    943    969
  1858   1    943    944    945
  1859   3    943    944    970
  1860   3    945    944    970
  1861   1    944    945    946
  1862   2    944    945   1003
  1863   2    946    945   1003
  1864   1    945    946    947
  1865   3    945    946    971
  1866   3    947    946    971
  1867   1    946    947    948
  1868   3    946    947    972
  1869   3    948    947    972
  1870   4    943    948    930
  1871   4    947    948    930
  1872   1    943    948    947
  1873   6    859    973    974
  1874   7    859    973    975
  1875   7    859    973    976
  1876   8    975    973    974
  1877   8    976    973    974
  1878   9    975    973    976
  1879   6    931    974    973
  1880   8    977    974    973
  1881   8    978    974    973
  1882   7    931    974    977
  1883   7    931    974    978
  1884   9    977    974    978
  1885   6   2001    979    980
  1886   7   2001    979    981
  1887   7   2001    979    982
  1888   8    981    979    980
  1889   8    982    979    980
  1890   9    981    979    982
  1891   6    757    980    979
  1892   7    757    980    983
  1893   7    757    980    984
  1894   8    983    980    979
  1895   8    984    980    979
  1896   9    983    980    984
  1897   6    237    985    986
  1898   7    237    985    987
  1899   7    237    985    988
  1900   8    987    985    986
  1901   8    988    985    986
  1902   9    987    985    988
  1903   6    901    986    985
  1904   8    989    986    985
  1905   8    990    986    985
  1906   7    901    986    989
  1907   7    901    986    990
  1908   9    989    986    990
  1909   6    801    991    992
  1910   7    801    991    993
  1911   7    801    991    994
  1912   8    993    991    992
  1913   8    994    991    992
  1914   9    993    991    994
  1915   6    843    992    991
  1916   7    843    992    995
  1917   7    843    992    996
  1918   8    995    992    991
  1919   8    996    992    991
  1920   9    995    992    996
  1921   6    868    997    998
  1922   7    868    997    999
  1923   7    868    997   1000
  1924   8    999    997    998
  1925   8   1000    997    998
  1926   9    999    997   1000
  1927   6    724    998    997
  1928   7    724    998    461
  1929   7    724    998   1002
  1930   8    461    998    997
  1931   8   1002    998    997
  1932   9    461    998   1002
  1933   6    945   1003   1004
  1934   7    945   1003   1005
  1935   7    945   1003   1006
  1936   8   1005   1003   1004
  1937   8   1006   1003   1004
  1938   9   1005   1003   1006
  1939   6    699   1004   1003
  1940   8   1007   1004   1003
  1941   8   1008   1004   1003
  1942   7    699   1004   1007
  1943   7    699   1004   1008
  1944   9   1007   1004   1008
  1945   6    715   1009   1010
  1946   7    715   1009   1011
  1947   7    715   1009   1012
  1948   8   1011   1009   1010
  1949   8   1012   1009   1010
  1950   9   1011   1009   1012
  1951   6    787   1010   1009
  1952   7    787   1010   1013
  1953   7    787   1010   1014
  1954   8   1013   1010   1009
  1955   8   1014   1010   1009
  1956   9   1013   1010   1014
  1957   6    849   1015   1016
  1958   7    849   1015   1017
  1959   7    849   1015   1018
  1960   8   1017   1015   1016
  1961   8   1018   1015   1016
  1962   9   1017   1015   1018
  1963   6    613   1016   1015
  1964   7    613   1016   1019
  1965   7    613   1016   1020
  1966   8   1019   1016   1015
  1967   8   1020   1016   1015
  1968   9   1019   1016   1020
  1969   6    633   1021   1022
  1970   7    633   1021   1023
  1971   7    633   1021   1024
  1972   8   1023   1021   1022
  1973   8   1024   1021   1022
  1974   9   1023   1021   1024
  1975   6    829   1022   1021
  1976   7    829   1022   1025
  1977   7    829   1022   1026
  1978   8   1025   1022   1021
  1979   8   1026   1022   1021
  1980   9   1025   1022   1026
  1981   6    652   1027   1028
  1982   7    652   1027   1029
  1983   7    652   1027   1030
  1984   8   1029   1027   1028
  1985   8   1030   1027   1028
  1986   9   1029   1027   1030
  1987   6    796   1028   1027
  1988   8   1031   1028   1027
  1989   8   1032   1028   1027
  1990   7    796   1028   1031
  1991   7    796   1028   1032
  1992   9   1031   1028   1032
  1993   6    729   1033   1034
  1994   7    729   1033   1035
  1995   7    729   1033   1036
  1996   8   1035   1033   1034
  1997   8   1036   1033   1034
  1998   9   1035   1033   1036
  1999   6    627   1034   1033
  2000   7    627   1034   1037
  2001   7    627   1034   1038
  2002   8   1037   1034   1033
  2003   8   1038   1034   1033
  2004   9   1037   1034   1038
  2005   6    657   1039   1040
  2006   7    657   1039   1041
  2007   7    657   1039   1042
  2008   8   1041   1039   1040
  2009   8   1042   1039   1040
  2010   9   1041   1039   1042
  2011   6   1995   1040   1039
  2012   7   1995   1040   1043
  2013   7   1995   1040   2124
  2014   8   1043   1040   1039
  2015   8   2124   1040   1039
  2016   9   1043   1040   2124
  2017   6    705   1045   1046
  2018   7    705   1045   1047
  2019   7    705   1045   1048
  2020   8   1047   1045   1046
  2021   8   1048   1045   1046
  2022   9   1047   1045   1048
  2023   6    541   1046   1045
  2024   7    541   1046   1049
  2025   7    541   1046   1050
  2026   8   1049   1046   1045
  2027   8   1050   1046   1045
  2028   9   1049   1046   1050
  2029   6    561   1051   1052
  2030   7    561   1051   1053
  2031   7    561   1051   1054
  2032   8   1053   1051   1052
  2033   8   1054   1051   1052
  2034   9   1053   1051   1054
  2035   6    685   1052   1051
  2036   7    685   1052   1055
  2037   7    685   1052   1056
  2038   8   1055   1052   1051
  2039   8   1056   1052   1051
  2040   9   1055   1052   1056
  2041   6   1660   1057   1058
  2042   7   1660   1057   1059
  2043   7   1660   1057    520
  2044   8   1059   1057   1058
  2045   8    520   1057   1058
  2046   9   1059   1057    520
  2047   6    400   1058   1057
  2048   7    400   1058    521
  2049   7    400   1058   2142
  2050   8    521   1058   1057
  2051   8   2142   1058   1057
  2052   9    521   1058   2142
  2053   6    873   1063   1064
  2054   7    873   1063   1065
  2055   7    873   1063   1066
  2056   8   1065   1063   1064
  2057   8   1066   1063   1064
  2058   9   1065   1063   1066
  2059   6    555   1064   1063
  2060   8   1067   1064   1063
  2061   8   1068   1064   1063
  2062   7    555   1064   1067
  2063   7    555   1064   1068
  2064   9   1067   1064   1068
  2065   6    585   1069    530
  2066   7    585   1069   1071
  2067   7    585   1069   1072
  2068   8   1071   1069    530
  2069   8   1072   1069    530
  2070   9   1071   1069   1072
  2071   6    771   1070    529
  2072   7    771   1070   1073
  2073   7    771   1070   1074
  2074   8   1073   1070    529
  2075   8   1074   1070    529
  2076   9   1073   1070   1074
  2077   6    571   1075   1076
  2078   7    571   1075   1077
  2079   7    571   1075   1078
  2080   8   1077   1075   1076
  2081   8   1078   1075   1076
  2082   9   1077   1075   1078
  2083   6    643   1076   1075
  2084   7    643   1076   1079
  2085   7    643   1076   1080
  2086   8   1079   1076   1075
  2087   8   1080   1076   1075
  2088   9   1079   1076   1080
  2089   1   1082   1081   1086
  2090   2   1082   1081   1586
  2091   2   1086   1081   1586
  2092   1   1081   1082   1083
  2093   3   1081   1082   1087
  2094   3   1083   1082   1087
  2095   1   1082   1083   1084
  2096   3   1082   1083   1088
  2097   3   1084   1083   1088
  2098   1   1083   1084   1085
  2099   4   1083   1084   1637
  2100   4   1085   1084   1637
  2101   1   1084   1085   1086
  2102   3   1084   1085   1629
  2103   3   1086   1085   1629
  2104   1   1081   1086   1085
  2105   3   1081   1086   1090
  2106   3   1085   1086   1090
  2107   1   1092   1091   1096
  2108   3   1092   1091   1129
  2109   3   1096   1091   1129
  2110   1   1091   1092   1093
  2111   4   1091   1092   1097
  2112   4   1093   1092   1097
  2113   1   1092   1093   1094
  2114   3   1092   1093   1130
  2115   3   1094   1093   1130
  2116   1   1093   1094   1095
  2117   3   1093   1094   1131
  2118   3   1095   1094   1131
  2119   1   1094   1095   1096
  2120   2   1094   1095   1604
  2121   2   1096   1095   1604
  2122   1   1091   1096   1095
  2123   3   1091   1096   1132
  2124   3   1095   1096   1132
  2125   5   1624   1097   1092
  2126   5   1624   1097   1098
  2127   5   1624   1097   1109
  2128   5   1092   1097   1098
  2129   5   1092   1097   1109
  2130   5   1098   1097   1109
  2131   4   1639   1098   1097
  2132   4   1103   1098   1097
  2133   1   1639   1098   1103
  2134   1   1638   1099   1640
  2135   3   1638   1099   1133
  2136   3   1640   1099   1133
  2137   1   1639   1100   1101
  2138   3   1639   1100   1674
  2139   3   1101   1100   1674
  2140   1   1100   1101   1102
  2141   2   1100   1101   1591
  2142   2   1102   1101   1591
  2143   1   1101   1102   1103
  2144   3   1101   1102   1135
  2145   3   1103   1102   1135
  2146   1   1098   1103   1102
  2147   3   1098   1103   1136
  2148   3   1102   1103   1136
  2149   1   1105   1104   1109
  2150   3   1105   1104   1137
  2151   3   1109   1104   1137
  2152   1   1104   1105   1106
  2153   3   1104   1105   1138
  2154   3   1106   1105   1138
  2155   1   1105   1106   1647
  2156   4   1105   1106   1110
  2157   4   1647   1106   1110
  2158   1   1646   1107   1108
  2159   3   1646   1107   1139
  2160   3   1108   1107   1139
  2161   1   1107   1108   1649
  2162   3   1107   1108   1140
  2163   3   1649   1108   1140
  2164   1   1648   1109   1104
  2165   4   1648   1109   1097
  2166   4   1104   1109   1097
  2167   5   1106   1110   1114
  2168   5   1106   1110   1117
  2169   5   1106   1110   1128
  2170   5   1114   1110   1117
  2171   5   1114   1110   1128
  2172   5   1117   1110   1128
  2173   1   1112   1111   1116
  2174   2   1112   1111   1615
  2175   2   1116   1111   1615
  2176   1   1111   1112   1113
  2177   3   1111   1112   1141
  2178   3   1113   1112   1141
  2179   1   1112   1113   1114
  2180   3   1112   1113   1142
  2181   3   1114   1113   1142
  2182   4   1113   1114   1110
  2183   1   1113   1114   1115
  2184   4   1115   1114   1110
  2185   1   1114   1115   1116
  2186   3   1114   1115   1143
  2187   3   1116   1115   1143
  2188   1   1115   1116   1111
  2189   3   1115   1116   1144
  2190   3   1111   1116   1144
  2191   4   1658   1117   1110
  2192   4   1122   1117   1110
  2193   1   1658   1117   1122
  2194   1   1657   1118   1119
  2195   3   1657   1118   1145
  2196   3   1119   1118   1145
  2197   1   1118   1119   1660
  2198   3   1118   1119     66
  2199   3   1660   1119     66
  2200   1   1659   1120   1121
  2201   2   1659   1120    517
  2202   2   1121   1120    517
  2203   1   1120   1121   1122
  2204   3   1120   1121   1147
  2205   3   1122   1121   1147
  2206   1   1121   1122   1117
  2207   3   1121   1122   1148
  2208   3   1117   1122   1148
  2209   1   1664   1123   1128
  2210   3   1664   1123   1149
  2211   3   1128   1123   1149
  2212   1   1663   1124   1125
  2213   3   1663   1124   1150
  2214   3   1125   1124   1150
  2215   1   1124   1125   1126
  2216   2   1124   1125   1609
  2217   2   1126   1125   1609
  2218   1   1125   1126   1667
  2219   3   1125   1126   1151
  2220   3   1667   1126   1151
  2221   1   1666   1127   1128
  2222   3   1666   1127   1152
  2223   3   1128   1127   1152
  2224   4   1127   1128   1110
  2225   1   1127   1128   1123
  2226   4   1123   1128   1110
  2227   1   1154   1153   1158
  2228   2   1154   1153   1556
  2229   2   1158   1153   1556
  2230   1   1153   1154   1155
  2231   3   1153   1154   1159
  2232   3   1155   1154   1159
  2233   1   1154   1155     76
  2234   3   1154   1155   1160
  2235   3     76   1155   1160
  2236   1     75   1156   1157
  2237   4     75   1156   1169
  2238   4   1157   1156   1169
  2239   1   1156   1157     78
  2240   3   1156   1157   1161
  2241   3     78   1157   1161
  2242   1   1153   1158     77
  2243   3   1153   1158   1162
  2244   3     77   1158   1162
  2245   1   1164   1163   1168
  2246   3   1164   1163   1201
  2247   3   1168   1163   1201
  2248   1   1163   1164   1165
  2249   4   1163   1164   1169
  2250   4   1165   1164   1169
  2251   1   1164   1165   1166
  2252   3   1164   1165   1202
  2253   3   1166   1165   1202
  2254   1   1165   1166   1167
  2255   3   1165   1166   1203
  2256   3   1167   1166   1203
  2257   1   1166   1167   1168
  2258   2   1166   1167   1574
  2259   2   1168   1167   1574
  2260   1   1167   1168   1163
  2261   3   1167   1168   1204
  2262   3   1163   1168   1204
  2263   5   1156   1169   1164
  2264   5   1156   1169   1170
  2265   5   1156   1169   1181
  2266   5   1164   1169   1170
  2267   5   1164   1169   1181
  2268   5   1170   1169   1181
  2269   4   1171   1170   1169
  2270   4   1175   1170   1169
  2271   1   1171   1170   1175
  2272   1   1170   1171   1172
  2273   3   1170   1171   1205
  2274   3   1172   1171   1205
  2275   1   1171   1172   1173
  2276   3   1171   1172   1206
  2277   3   1173   1172   1206
  2278   1   1172   1173   1174
  2279   2   1172   1173   1561
  2280   2   1174   1173   1561
  2281   1   1173   1174   1175
  2282   3   1173   1174   1207
  2283   3   1175   1174   1207
  2284   1   1174   1175   1170
  2285   3   1174   1175   1208
  2286   3   1170   1175   1208
  2287   1   1177   1176   1181
  2288   3   1177   1176   1209
  2289   3   1181   1176   1209
  2290   1   1176   1177     98
  2291   3   1176   1177   1210
  2292   3     98   1177   1210
  2293   1     97   1178   1179
  2294   4     97   1178    102
  2295   4   1179   1178    102
  2296   1   1178   1179   1180
  2297   3   1178   1179   1211
  2298   3   1180   1179   1211
  2299   1   1179   1180    101
  2300   3   1179   1180   1212
  2301   3    101   1180   1212
  2302   1   1176   1181    100
  2303   4   1176   1181   1169
  2304   4    100   1181   1169
  2305   5     98   1182   1186
  2306   5     98   1182    109
  2307   5     98   1182    120
  2308   5   1186   1182    109
  2309   5   1186   1182    120
  2310   5    109   1182    120
  2311   1   1184   1183   1188
  2312   2   1184   1183   1616
  2313   2   1188   1183   1616
  2314   1   1183   1184   1185
  2315   3   1183   1184   1213
  2316   3   1185   1184   1213
  2317   1   1184   1185   1186
  2318   3   1184   1185   1214
  2319   3   1186   1185   1214
  2320   4   1185   1186   1182
  2321   1   1185   1186   1187
  2322   4   1187   1186   1182
  2323   1   1186   1187   1188
  2324   3   1186   1187   1215
  2325   3   1188   1187   1215
  2326   1   1187   1188   1183
  2327   3   1187   1188   1216
  2328   3   1183   1188   1216
  2329   4   1190   1189    102
  2330   4    114   1189    102
  2331   1   1190   1189    114
  2332   1   1189   1190   1731
  2333   3   1189   1190   1217
  2334   3   1731   1190   1217
  2335   1   1730   1191   1192
  2336   3   1730   1191   1218
  2337   3   1192   1191   1218
  2338   1   1191   1192   1193
  2339   2   1191   1192   1567
  2340   2   1193   1192   1567
  2341   1   1192   1193    654
  2342   3   1192   1193    139
  2343   3    654   1193    139
  2344   1    653   1194    109
  2345   3    653   1194   1220
  2346   3    109   1194   1220
  2347   1    116   1195    120
  2348   3    116   1195   1221
  2349   3    120   1195   1221
  2350   1    115   1196   1197
  2351   3    115   1196    142
  2352   3   1197   1196    142
  2353   1   1196   1197   1198
  2354   2   1196   1197   1579
  2355   2   1198   1197   1579
  2356   1   1197   1198   1199
  2357   3   1197   1198   1223
  2358   3   1199   1198   1223
  2359   1   1198   1199   1200
  2360   3   1198   1199   1224
  2361   3   1200   1199   1224
  2362   1   1199   1200    115
  2363   4   1199   1200    102
  2364   4    115   1200    102
  2365   1   1226   1225   1230
  2366   2   1226   1225   1592
  2367   2   1230   1225   1592
  2368   1   1225   1226   1227
  2369   3   1225   1226   1231
  2370   3   1227   1226   1231
  2371   1   1226   1227   1228
  2372   3   1226   1227   1232
  2373   3   1228   1227   1232
  2374   1   1227   1228   1229
  2375   4   1227   1228   1241
  2376   4   1229   1228   1241
  2377   1   1228   1229   1230
  2378   3   1228   1229   1233
  2379   3   1230   1229   1233
  2380   1   1229   1230   1225
  2381   3   1229   1230   1234
  2382   3   1225   1230   1234
  2383   1   1236   1235   1240
  2384   3   1236   1235   1273
  2385   3   1240   1235   1273
  2386   1   1235   1236   1237
  2387   4   1235   1236   1241
  2388   4   1237   1236   1241
  2389   1   1236   1237   1238
  2390   3   1236   1237   1274
  2391   3   1238   1237   1274
  2392   1   1237   1238   1239
  2393   3   1237   1238   1275
  2394   3   1239   1238   1275
  2395   1   1238   1239   1240
  2396   2   1238   1239   1544
  2397   2   1240   1239   1544
  2398   1   1239   1240   1235
  2399   3   1239   1240   1276
  2400   3   1235   1240   1276
  2401   5   1228   1241   1236
  2402   5   1228   1241   1242
  2403   5   1228   1241   1253
  2404   5   1236   1241   1242
  2405   5   1236   1241   1253
  2406   5   1242   1241   1253
  2407   4   1243   1242   1241
  2408   4   1247   1242   1241
  2409   1   1243   1242   1247
  2410   1   1242   1243   1244
  2411   3   1242   1243   1277
  2412   3   1244   1243   1277
  2413   1   1243   1244   1245
  2414   3   1243   1244   1278
  2415   3   1245   1244   1278
  2416   1   1244   1245   1246
  2417   2   1244   1245   1585
  2418   2   1246   1245   1585
  2419   1   1245   1246   1247
  2420   3   1245   1246   1279
  2421   3   1247   1246   1279
  2422   1   1242   1247   1246
  2423   3   1242   1247   1280
  2424   3   1246   1247   1280
  2425   1   1249   1248   1253
  2426   3   1249   1248   1281
  2427   3   1253   1248   1281
  2428   1   1248   1249   1250
  2429   3   1248   1249   1282
  2430   3   1250   1249   1282
  2431   1   1249   1250   1251
  2432   4   1249   1250   1254
  2433   4   1251   1250   1254
  2434   1   1250   1251   1252
  2435   3   1250   1251   1283
  2436   3   1252   1251   1283
  2437   1   1251   1252   1253
  2438   3   1251   1252   1284
  2439   3   1253   1252   1284
  2440   1   1248   1253   1252
  2441   4   1248   1253   1241
  2442   4   1252   1253   1241
  2443   5   1250   1254   1258
  2444   5   1250   1254   1261
  2445   5   1250   1254   1272
  2446   5   1258   1254   1261
  2447   5   1258   1254   1272
  2448   5   1261   1254   1272
  2449   1   1256   1255   1260
  2450   2   1256   1255   1549
  2451   2   1260   1255   1549
  2452   1   1255   1256   1257
  2453   3   1255   1256   1285
  2454   3   1257   1256   1285
  2455   1   1256   1257   1258
  2456   3   1256   1257   1286
  2457   3   1258   1257   1286
  2458   4   1257   1258   1254
  2459   1   1257   1258   1259
  2460   4   1259   1258   1254
  2461   1   1258   1259   1260
  2462   3   1258   1259   1287
  2463   3   1260   1259   1287
  2464   1   1255   1260   1259
  2465   3   1255   1260   1288
  2466   3   1259   1260   1288
  2467   4   1262   1261   1254
  2468   4   1266   1261   1254
  2469   1   1262   1261   1266
  2470   1   1261   1262   1263
  2471   3   1261   1262   1289
  2472   3   1263   1262   1289
  2473   1   1262   1263   1264
  2474   3   1262   1263   1290
  2475   3   1264   1263   1290
  2476   1   1263   1264   1265
  2477   2   1263   1264   1538
  2478   2   1265   1264   1538
  2479   1   1264   1265   1266
  2480   3   1264   1265   1291
  2481   3   1266   1265   1291
  2482   1   1261   1266   1265
  2483   3   1261   1266   1292
  2484   3   1265   1266   1292
  2485   1   1268   1267   1272
  2486   3   1268   1267   1293
  2487   3   1272   1267   1293
  2488   1   1267   1268   1269
  2489   3   1267   1268   1294
  2490   3   1269   1268   1294
  2491   1   1268   1269   1270
  2492   2   1268   1269   1573
  2493   2   1270   1269   1573
  2494   1   1269   1270   1271
  2495   3   1269   1270   1295
  2496   3   1271   1270   1295
  2497   1   1270   1271   1272
  2498   3   1270   1271   1296
  2499   3   1272   1271   1296
  2500   1   1267   1272   1271
  2501   4   1267   1272   1254
  2502   4   1271   1272   1254
  2503   1   1298   1297   1302
  2504   2   1298   1297   1520
  2505   2   1302   1297   1520
  2506   1   1297   1298   1299
  2507   3   1297   1298   1303
  2508   3   1299   1298   1303
  2509   1   1298   1299   1300
  2510   3   1298   1299   1304
  2511   3   1300   1299   1304
  2512   1   1299   1300   1301
  2513   4   1299   1300   1313
  2514   4   1301   1300   1313
  2515   1   1300   1301   1302
  2516   3   1300   1301   1305
  2517   3   1302   1301   1305
  2518   1   1297   1302   1301
  2519   3   1297   1302   1306
  2520   3   1301   1302   1306
  2521   1   1308   1307   1312
  2522   3   1308   1307   1345
  2523   3   1312   1307   1345
  2524   1   1307   1308   1309
  2525   4   1307   1308   1313
  2526   4   1309   1308   1313
  2527   1   1308   1309   1310
  2528   3   1308   1309   1346
  2529   3   1310   1309   1346
  2530   1   1309   1310   1311
  2531   3   1309   1310   1347
  2532   3   1311   1310   1347
  2533   1   1310   1311   1312
  2534   2   1310   1311   1610
  2535   2   1312   1311   1610
  2536   1   1307   1312   1311
  2537   3   1307   1312   1348
  2538   3   1311   1312   1348
  2539   5   1300   1313   1308
  2540   5   1300   1313   1314
  2541   5   1300   1313   1325
  2542   5   1308   1313   1314
  2543   5   1308   1313   1325
  2544   5   1314   1313   1325
  2545   4   1315   1314   1313
  2546   4   1319   1314   1313
  2547   1   1315   1314   1319
  2548   1   1314   1315   1856
  2549   3   1314   1315   1349
  2550   3   1856   1315   1349
  2551   1   1855   1316   1857
  2552   3   1855   1316   1350
  2553   3   1857   1316   1350
  2554   1   1856   1317   1318
  2555   2   1856   1317   2065
  2556   2   1318   1317   2065
  2557   1   1317   1318   1319
  2558   3   1317   1318   1351
  2559   3   1319   1318   1351
  2560   1   1318   1319   1314
  2561   3   1318   1319   1352
  2562   3   1314   1319   1352
  2563   1   1321   1320   1325
  2564   3   1321   1320   1353
  2565   3   1325   1320   1353
  2566   1   1320   1321   1322
  2567   3   1320   1321   1354
  2568   3   1322   1321   1354
  2569   1   1321   1322   1323
  2570   4   1321   1322   1326
  2571   4   1323   1322   1326
  2572   1   1322   1323   1324
  2573   3   1322   1323   1355
  2574   3   1324   1323   1355
  2575   1   1323   1324   1325
  2576   3   1323   1324   1356
  2577   3   1325   1324   1356
  2578   4   1324   1325   1313
  2579   4   1320   1325   1313
  2580   1   1324   1325   1320
  2581   5   1322   1326   1870
  2582   5   1322   1326   1873
  2583   5   1322   1326   1344
  2584   5   1870   1326   1873
  2585   5   1870   1326   1344
  2586   5   1873   1326   1344
  2587   1   1328   1327   1332
  2588   2   1328   1327   1550
  2589   2   1332   1327   1550
  2590   1   1327   1328   1869
  2591   3   1327   1328   1897
  2592   3   1869   1328   1897
  2593   1   1868   1329   1870
  2594   3   1868   1329   1358
  2595   3   1870   1329   1358
  2596   4   1869   1330   1866
  2597   1   1869   1330   1331
  2598   4   1331   1330   1866
  2599   1   1330   1331   1332
  2600   3   1330   1331   1359
  2601   3   1332   1331   1359
  2602   1   1331   1332   1327
  2603   3   1331   1332   1360
  2604   3   1327   1332   1360
  2605   4   1334   1333   1866
  2606   4   1338   1333   1866
  2607   1   1334   1333   1338
  2608   1   1333   1334   1335
  2609   3   1333   1334   1901
  2610   3   1335   1334   1901
  2611   1   1334   1335   1336
  2612   3   1334   1335   1362
  2613   3   1336   1335   1362
  2614   1   1335   1336   1337
  2615   2   1335   1336   1568
  2616   2   1337   1336   1568
  2617   1   1336   1337   1338
  2618   3   1336   1337   1363
  2619   3   1338   1337   1363
  2620   1   1333   1338   1337
  2621   3   1333   1338   1364
  2622   3   1337   1338   1364
  2623   1   1880   1339   1884
  2624   3   1880   1339   1365
  2625   3   1884   1339   1365
  2626   1   1879   1340   1341
  2627   3   1879   1340   1906
  2628   3   1341   1340   1906
  2629   1   1340   1341   1342
  2630   2   1340   1341   1531
  2631   2   1342   1341   1531
  2632   1   1341   1342   1343
  2633   3   1341   1342   1367
  2634   3   1343   1342   1367
  2635   1   1342   1343   1344
  2636   3   1342   1343   1368
  2637   3   1344   1343   1368
  2638   4   1343   1344   1326
  2639   1   1343   1344   1879
  2640   4   1879   1344   1326
  2641   1   1370   1369   1374
  2642   2   1370   1369   1562
  2643   2   1374   1369   1562
  2644   1   1369   1370   1371
  2645   3   1369   1370   1375
  2646   3   1371   1370   1375
  2647   1   1370   1371   1372
  2648   3   1370   1371   1376
  2649   3   1372   1371   1376
  2650   1   1371   1372   1373
  2651   4   1371   1372   1385
  2652   4   1373   1372   1385
  2653   1   1372   1373   1374
  2654   3   1372   1373   1377
  2655   3   1374   1373   1377
  2656   1   1369   1374   1373
  2657   3   1369   1374   1378
  2658   3   1373   1374   1378
  2659   1   1380   1379   1384
  2660   3   1380   1379   1417
  2661   3   1384   1379   1417
  2662   1   1379   1380   1381
  2663   4   1379   1380   1385
  2664   4   1381   1380   1385
  2665   1   1380   1381   1382
  2666   3   1380   1381   1418
  2667   3   1382   1381   1418
  2668   1   1381   1382   1383
  2669   3   1381   1382   1419
  2670   3   1383   1382   1419
  2671   1   1382   1383   1384
  2672   2   1382   1383   1532
  2673   2   1384   1383   1532
  2674   1   1383   1384   1379
  2675   3   1383   1384   1420
  2676   3   1379   1384   1420
  2677   5   1372   1385   1380
  2678   5   1372   1385   1386
  2679   5   1372   1385   1397
  2680   5   1380   1385   1386
  2681   5   1380   1385   1397
  2682   5   1386   1385   1397
  2683   4   1387   1386   1385
  2684   4   1391   1386   1385
  2685   1   1387   1386   1391
  2686   1   1386   1387   1388
  2687   3   1386   1387   1421
  2688   3   1388   1387   1421
  2689   1   1387   1388   1389
  2690   3   1387   1388   1422
  2691   3   1389   1388   1422
  2692   1   1388   1389   1390
  2693   2   1388   1389   1555
  2694   2   1390   1389   1555
  2695   1   1389   1390   1391
  2696   3   1389   1390   1423
  2697   3   1391   1390   1423
  2698   1   1390   1391   1386
  2699   3   1390   1391   1424
  2700   3   1386   1391   1424
  2701   1   1393   1392   1397
  2702   3   1393   1392   1425
  2703   3   1397   1392   1425
  2704   1   1392   1393   1394
  2705   3   1392   1393   1426
  2706   3   1394   1393   1426
  2707   1   1393   1394   1395
  2708   4   1393   1394   1398
  2709   4   1395   1394   1398
  2710   1   1394   1395   1396
  2711   3   1394   1395   1427
  2712   3   1396   1395   1427
  2713   1   1395   1396   1397
  2714   3   1395   1396   1428
  2715   3   1397   1396   1428
  2716   4   1396   1397   1385
  2717   1   1396   1397   1392
  2718   4   1392   1397   1385
  2719   5   1394   1398   1402
  2720   5   1394   1398   1405
  2721   5   1394   1398   1416
  2722   5   1402   1398   1405
  2723   5   1402   1398   1416
  2724   5   1405   1398   1416
  2725   1   1400   1399   1404
  2726   2   1400   1399   1513
  2727   2   1404   1399   1513
  2728   1   1399   1400   1401
  2729   3   1399   1400   1429
  2730   3   1401   1400   1429
  2731   1   1400   1401   1402
  2732   3   1400   1401   1430
  2733   3   1402   1401   1430
  2734   4   1401   1402   1398
  2735   4   1403   1402   1398
  2736   1   1401   1402   1403
  2737   1   1402   1403   1404
  2738   3   1402   1403   1431
  2739   3   1404   1403   1431
  2740   1   1403   1404   1399
  2741   3   1403   1404   1432
  2742   3   1399   1404   1432
  2743   4   1406   1405   1398
  2744   4   1410   1405   1398
  2745   1   1406   1405   1410
  2746   1   1405   1406   1407
  2747   3   1405   1406   1433
  2748   3   1407   1406   1433
  2749   1   1406   1407   1408
  2750   3   1406   1407   1434
  2751   3   1408   1407   1434
  2752   1   1407   1408   1409
  2753   2   1407   1408   1537
  2754   2   1409   1408   1537
  2755   1   1408   1409   1410
  2756   3   1408   1409   1435
  2757   3   1410   1409   1435
  2758   1   1409   1410   1405
  2759   3   1409   1410   1436
  2760   3   1405   1410   1436
  2761   1   1412   1411   1416
  2762   3   1412   1411   1437
  2763   3   1416   1411   1437
  2764   1   1411   1412   1413
  2765   3   1411   1412   1438
  2766   3   1413   1412   1438
  2767   1   1412   1413   1414
  2768   2   1412   1413   1603
  2769   2   1414   1413   1603
  2770   1   1413   1414   1415
  2771   3   1413   1414   1439
  2772   3   1415   1414   1439
  2773   1   1414   1415   1416
  2774   3   1414   1415   1440
  2775   3   1416   1415   1440
  2776   4   1415   1416   1398
  2777   1   1415   1416   1411
  2778   4   1411   1416   1398
  2779   1   1442   1441   1446
  2780   2   1442   1441   1526
  2781   2   1446   1441   1526
  2782   1   1441   1442   1443
  2783   3   1441   1442   1447
  2784   3   1443   1442   1447
  2785   1   1442   1443   1444
  2786   3   1442   1443   1448
  2787   3   1444   1443   1448
  2788   1   1443   1444   1445
  2789   4   1443   1444   1457
  2790   4   1445   1444   1457
  2791   1   1444   1445   1446
  2792   3   1444   1445   1449
  2793   3   1446   1445   1449
  2794   1   1441   1446   1445
  2795   3   1441   1446   1450
  2796   3   1445   1446   1450
  2797   1   1452   1451   1456
  2798   3   1452   1451   1489
  2799   3   1456   1451   1489
  2800   1   1451   1452   1453
  2801   4   1451   1452   1457
  2802   4   1453   1452   1457
  2803   1   1452   1453   1454
  2804   3   1452   1453   1490
  2805   3   1454   1453   1490
  2806   1   1453   1454   1455
  2807   3   1453   1454    411
  2808   3   1455   1454    411
  2809   1   1454   1455   1456
  2810   2   1454   1455    500
  2811   2   1456   1455    500
  2812   1   1455   1456   1451
  2813   3   1455   1456   1492
  2814   3   1451   1456   1492
  2815   5   1444   1457   1452
  2816   5   1444   1457   1458
  2817   5   1444   1457   1469
  2818   5   1452   1457   1458
  2819   5   1452   1457   1469
  2820   5   1458   1457   1469
  2821   4   1459   1458   1457
  2822   4   1463   1458   1457
  2823   1   1459   1458   1463
  2824   1   1458   1459    380
  2825   3   1458   1459    413
  2826   3    380   1459    413
  2827   1    379   1460    381
  2828   3    379   1460   1494
  2829   3    381   1460   1494
  2830   1    380   1461   1462
  2831   2    380   1461    439
  2832   2   1462   1461    439
  2833   1   1461   1462   1463
  2834   3   1461   1462   1495
  2835   3   1463   1462   1495
  2836   1   1458   1463   1462
  2837   3   1458   1463   1496
  2838   3   1462   1463   1496
  2839   1   1465   1464   1469
  2840   3   1465   1464   1497
  2841   3   1469   1464   1497
  2842   1   1464   1465   1466
  2843   3   1464   1465   1498
  2844   3   1466   1465   1498
  2845   1   1465   1466   1467
  2846   4   1465   1466   1470
  2847   4   1467   1466   1470
  2848   1   1466   1467   1468
  2849   3   1466   1467   1499
  2850   3   1468   1467   1499
  2851   1   1467   1468   1469
  2852   3   1467   1468   1500
  2853   3   1469   1468   1500
  2854   1   1468   1469   1464
  2855   4   1468   1469   1457
  2856   4   1464   1469   1457
  2857   5   1466   1470   1474
  2858   5   1466   1470   1477
  2859   5   1466   1470   1488
  2860   5   1474   1470   1477
  2861   5   1474   1470   1488
  2862   5   1477   1470   1488
  2863   1    392   1471   1476
  2864   2    392   1471   1514
  2865   2   1476   1471   1514
  2866   1    391   1472   1473
  2867   3    391   1472   1501
  2868   3   1473   1472   1501
  2869   1   1472   1473   1474
  2870   3   1472   1473   1502
  2871   3   1474   1473   1502
  2872   4   1473   1474   1470
  2873   4    395   1474   1470
  2874   1   1473   1474    395
  2875   1    394   1475   1476
  2876   3    394   1475   1503
  2877   3   1476   1475   1503
  2878   1   1475   1476   1471
  2879   3   1475   1476   1504
  2880   3   1471   1476   1504
  2881   4   1478   1477   1470
  2882   4    402   1477   1470
  2883   1   1478   1477    402
  2884   1   1477   1478   1479
  2885   3   1477   1478   1505
  2886   3   1479   1478   1505
  2887   1   1478   1479    400
  2888   3   1478   1479   2046
  2889   3    400   1479   2046
  2890   1    399   1480   1481
  2891   2    399   1480   2138
  2892   2   1481   1480   2138
  2893   1   1480   1481   1482
  2894   3   1480   1481   1507
  2895   3   1482   1481   1507
  2896   1   1481   1482    397
  2897   3   1481   1482   1508
  2898   3    397   1482   1508
  2899   1   1484   1483   1488
  2900   3   1484   1483   1509
  2901   3   1488   1483   1509
  2902   1   1483   1484   1485
  2903   3   1483   1484   1510
  2904   3   1485   1484   1510
  2905   1   1484   1485   1486
  2906   2   1484   1485   1543
  2907   2   1486   1485   1543
  2908   1   1485   1486   1487
  2909   3   1485   1486   1511
  2910   3   1487   1486   1511
  2911   1   1486   1487   1488
  2912   3   1486   1487   1512
  2913   3   1488   1487   1512
  2914   4   1483   1488   1470
  2915   4   1487   1488   1470
  2916   1   1483   1488   1487
  2917   6   1399   1513   1514
  2918   7   1399   1513   1515
  2919   7   1399   1513   1516
  2920   8   1515   1513   1514
  2921   8   1516   1513   1514
  2922   9   1515   1513   1516
  2923   6   1471   1514   1513
  2924   8   1517   1514   1513
  2925   8   1518   1514   1513
  2926   7   1471   1514   1517
  2927   7   1471   1514   1518
  2928   9   1517   1514   1518
  2929   6    381   1519   1520
  2930   7    381   1519   1521
  2931   7    381   1519   1522
  2932   8   1521   1519   1520
  2933   8   1522   1519   1520
  2934   9   1521   1519   1522
  2935   6   1297   1520   1519
  2936   7   1297   1520   1523
  2937   7   1297   1520   1524
  2938   8   1523   1520   1519
  2939   8   1524   1520   1519
  2940   9   1523   1520   1524
  2941   6   1857   1525   1526
  2942   7   1857   1525   1527
  2943   7   1857   1525   1528
  2944   8   1527   1525   1526
  2945   8   1528   1525   1526
  2946   9   1527   1525   1528
  2947   6   1441   1526   1525
  2948   8   1529   1526   1525
  2949   8   1530   1526   1525
  2950   7   1441   1526   1529
  2951   7   1441   1526   1530
  2952   9   1529   1526   1530
  2953   6   1341   1531   1532
  2954   7   1341   1531   1533
  2955   7   1341   1531   1534
  2956   8   1533   1531   1532
  2957   8   1534   1531   1532
  2958   9   1533   1531   1534
  2959   6   1383   1532   1531
  2960   7   1383   1532   1535
  2961   7   1383   1532   1536
  2962   8   1535   1532   1531
  2963   8   1536   1532   1531
  2964   9   1535   1532   1536
  2965   6   1408   1537   1538
  2966   7   1408   1537   1539
  2967   7   1408   1537   1540
  2968   8   1539   1537   1538
  2969   8   1540   1537   1538
  2970   9   1539   1537   1540
  2971   6   1264   1538   1537
  2972   7   1264   1538   2081
  2973   7   1264   1538   1542
  2974   8   2081   1538   1537
  2975   8   1542   1538   1537
  2976   9   2081   1538   1542
  2977   6   1485   1543   1544
  2978   7   1485   1543   1545
  2979   7   1485   1543   1546
  2980   8   1545   1543   1544
  2981   8   1546   1543   1544
  2982   9   1545   1543   1546
  2983   6   1239   1544   1543
  2984   8   1547   1544   1543
  2985   8   1548   1544   1543
  2986   7   1239   1544   1547
  2987   7   1239   1544   1548
  2988   9   1547   1544   1548
  2989   6   1255   1549   1550
  2990   7   1255   1549   1551
  2991   7   1255   1549   1552
  2992   8   1551   1549   1550
  2993   8   1552   1549   1550
  2994   9   1551   1549   1552
  2995   6   1327   1550   1549
  2996   7   1327   1550   1553
  2997   7   1327   1550   1554
  2998   8   1553   1550   1549
  2999   8   1554   1550   1549
  3000   9   1553   1550   1554
  3001   6   1389   1555   1556
  3002   7   1389   1555   1557
  3003   7   1389   1555   1558
  3004   8   1557   1555   1556
  3005   8   1558   1555   1556
  3006   9   1557   1555   1558
  3007   6   1153   1556   1555
  3008   7   1153   1556   1559
  3009   7   1153   1556   1560
  3010   8   1559   1556   1555
  3011   8   1560   1556   1555
  3012   9   1559   1556   1560
  3013   6   1173   1561   1562
  3014   7   1173   1561   1563
  3015   7   1173   1561   1564
  3016   8   1563   1561   1562
  3017   8   1564   1561   1562
  3018   9   1563   1561   1564
  3019   6   1369   1562   1561
  3020   7   1369   1562   1565
  3021   7   1369   1562   1566
  3022   8   1565   1562   1561
  3023   8   1566   1562   1561
  3024   9   1565   1562   1566
  3025   6   1192   1567   1568
  3026   7   1192   1567   1569
  3027   7   1192   1567   1570
  3028   8   1569   1567   1568
  3029   8   1570   1567   1568
  3030   9   1569   1567   1570
  3031   6   1336   1568   1567
  3032   8   1571   1568   1567
  3033   8   1572   1568   1567
  3034   7   1336   1568   1571
  3035   7   1336   1568   1572
  3036   9   1571   1568   1572
  3037   6   1269   1573   1574
  3038   7   1269   1573   1575
  3039   7   1269   1573   1576
  3040   8   1575   1573   1574
  3041   8   1576   1573   1574
  3042   9   1575   1573   1576
  3043   6   1167   1574   1573
  3044   7   1167   1574   1577
  3045   7   1167   1574   1578
  3046   8   1577   1574   1573
  3047   8   1578   1574   1573
  3048   9   1577   1574   1578
  3049   6   1197   1579   1580
  3050   7   1197   1579   1581
  3051   7   1197   1579   1582
  3052   8   1581   1579   1580
  3053   8   1582   1579   1580
  3054   9   1581   1579   1582
  3055   6    375   1580   1579
  3056   7    375   1580   1583
  3057   7    375   1580    504
  3058   8   1583   1580   1579
  3059   8    504   1580   1579
  3060   9   1583   1580    504
  3061   6   1245   1585   1586
  3062   7   1245   1585   1587
  3063   7   1245   1585   1588
  3064   8   1587   1585   1586
  3065   8   1588   1585   1586
  3066   9   1587   1585   1588
  3067   6   1081   1586   1585
  3068   7   1081   1586   1589
  3069   7   1081   1586   1590
  3070   8   1589   1586   1585
  3071   8   1590   1586   1585
  3072   9   1589   1586   1590
  3073   6   1101   1591   1592
  3074   7   1101   1591   1593
  3075   7   1101   1591   1594
  3076   8   1593   1591   1592
  3077   8   1594   1591   1592
  3078   9   1593   1591   1594
  3079   6   1225   1592   1591
  3080   7   1225   1592   1595
  3081   7   1225   1592   1596
  3082   8   1595   1592   1591
  3083   8   1596   1592   1591
  3084   9   1595   1592   1596
  3085   6     40   1597   1598
  3086   7     40   1597   1599
  3087   7     40   1597   2140
  3088   8   1599   1597   1598
  3089   8   2140   1597   1598
  3090   9   1599   1597   2140
  3091   6   2020   1598   1597
  3092   7   2020   1598   2141
  3093   7   2020   1598    522
  3094   8   2141   1598   1597
  3095   8    522   1598   1597
  3096   9   2141   1598    522
  3097   6   1413   1603   1604
  3098   7   1413   1603   1605
  3099   7   1413   1603   1606
  3100   8   1605   1603   1604
  3101   8   1606   1603   1604
  3102   9   1605   1603   1606
  3103   6   1095   1604   1603
  3104   8   1607   1604   1603
  3105   8   1608   1604   1603
  3106   7   1095   1604   1607
  3107   7   1095   1604   1608
  3108   9   1607   1604   1608
  3109   6   1125   1609   2150
  3110   7   1125   1609   1611
  3111   7   1125   1609   1612
  3112   8   1611   1609   2150
  3113   8   1612   1609   2150
  3114   9   1611   1609   1612
  3115   6   1311   1610   2149
  3116   7   1311   1610   1613
  3117   7   1311   1610   1614
  3118   8   1613   1610   2149
  3119   8   1614   1610   2149
  3120   9   1613   1610   1614
  3121   6   1111   1615   1616
  3122   7   1111   1615   1617
  3123   7   1111   1615   1618
  3124   8   1617   1615   1616
  3125   8   1618   1615   1616
  3126   9   1617   1615   1618
  3127   6   1183   1616   1615
  3128   7   1183   1616   1619
  3129   7   1183   1616   1620
  3130   8   1619   1616   1615
  3131   8   1620   1616   1615
  3132   9   1619   1616   1620
  3133   1   1622   1621   1626
  3134   2   1622   1621   2126
  3135   2   1626   1621   2126
  3136   1   1621   1622   1623
  3137   3   1621   1622   1627
  3138   3   1623   1622   1627
  3139   1   1622   1623   1624
  3140   3   1622   1623   1628
  3141   3   1624   1623   1628
  3142   1   1623   1624   1625
  3143   4   1623   1624   1097
  3144   4   1625   1624   1097
  3145   1   1624   1625   1626
  3146   3   1624   1625   1089
  3147   3   1626   1625   1089
  3148   1   1621   1626   1625
  3149   3   1621   1626   1630
  3150   3   1625   1626   1630
  3151   1   1632   1631   1636
  3152   3   1632   1631   1669
  3153   3   1636   1631   1669
  3154   1   1631   1632   1633
  3155   4   1631   1632   1637
  3156   4   1633   1632   1637
  3157   1   1632   1633   1634
  3158   3   1632   1633   1670
  3159   3   1634   1633   1670
  3160   1   1633   1634   1635
  3161   3   1633   1634   1671
  3162   3   1635   1634   1671
  3163   1   1634   1635   1636
  3164   2   1634   1635   2144
  3165   2   1636   1635   2144
  3166   1   1631   1636   1635
  3167   3   1631   1636   1672
  3168   3   1635   1636   1672
  3169   5   1084   1637   1632
  3170   5   1084   1637   1638
  3171   5   1084   1637   1649
  3172   5   1632   1637   1638
  3173   5   1632   1637   1649
  3174   5   1638   1637   1649
  3175   4   1099   1638   1637
  3176   4   1643   1638   1637
  3177   1   1099   1638   1643
  3178   1   1098   1639   1100
  3179   3   1098   1639   1673
  3180   3   1100   1639   1673
  3181   1   1099   1640   1641
  3182   3   1099   1640   1134
  3183   3   1641   1640   1134
  3184   1   1640   1641   1642
  3185   2   1640   1641   2131
  3186   2   1642   1641   2131
  3187   1   1641   1642   1643
  3188   3   1641   1642   1675
  3189   3   1643   1642   1675
  3190   1   1638   1643   1642
  3191   3   1638   1643   1676
  3192   3   1642   1643   1676
  3193   1   1645   1644   1649
  3194   3   1645   1644   1677
  3195   3   1649   1644   1677
  3196   1   1644   1645   1646
  3197   3   1644   1645   1678
  3198   3   1646   1645   1678
  3199   1   1645   1646   1107
  3200   4   1645   1646   1650
  3201   4   1107   1646   1650
  3202   1   1106   1647   1648
  3203   3   1106   1647   1679
  3204   3   1648   1647   1679
  3205   1   1647   1648   1109
  3206   3   1647   1648   1680
  3207   3   1109   1648   1680
  3208   1   1108   1649   1644
  3209   4   1108   1649   1637
  3210   4   1644   1649   1637
  3211   5   1646   1650   1654
  3212   5   1646   1650   1657
  3213   5   1646   1650   1668
  3214   5   1654   1650   1657
  3215   5   1654   1650   1668
  3216   5   1657   1650   1668
  3217   1   1652   1651   1656
  3218   2   1652   1651   2155
  3219   2   1656   1651   2155
  3220   1   1651   1652   1653
  3221   3   1651   1652   1681
  3222   3   1653   1652   1681
  3223   1   1652   1653   1654
  3224   3   1652   1653   1682
  3225   3   1654   1653   1682
  3226   4   1653   1654   1650
  3227   1   1653   1654   1655
  3228   4   1655   1654   1650
  3229   1   1654   1655   1656
  3230   3   1654   1655   1683
  3231   3   1656   1655   1683
  3232   1   1655   1656   1651
  3233   3   1655   1656   1684
  3234   3   1651   1656   1684
  3235   4   1118   1657   1650
  3236   4   1662   1657   1650
  3237   1   1118   1657   1662
  3238   1   1117   1658   1659
  3239   3   1117   1658   1685
  3240   3   1659   1658   1685
  3241   1   1658   1659   1120
  3242   3   1658   1659    606
  3243   3   1120   1659    606
  3244   1   1119   1660   1661
  3245   2   1119   1660   1057
  3246   2   1661   1660   1057
  3247   1   1660   1661   1662
  3248   3   1660   1661   1687
  3249   3   1662   1661   1687
  3250   1   1661   1662   1657
  3251   3   1661   1662   1688
  3252   3   1657   1662   1688
  3253   1   1124   1663   1668
  3254   3   1124   1663   1689
  3255   3   1668   1663   1689
  3256   1   1123   1664   1665
  3257   3   1123   1664   1690
  3258   3   1665   1664   1690
  3259   1   1664   1665   1666
  3260   2   1664   1665   2149
  3261   2   1666   1665   2149
  3262   1   1665   1666   1127
  3263   3   1665   1666   1691
  3264   3   1127   1666   1691
  3265   1   1126   1667   1668
  3266   3   1126   1667   1692
  3267   3   1668   1667   1692
  3268   4   1667   1668   1650
  3269   1   1667   1668   1663
  3270   4   1663   1668   1650
  3271   1   1694   1693   1698
  3272   2   1694   1693   2096
  3273   2   1698   1693   2096
  3274   1   1693   1694   1695
  3275   3   1693   1694   1699
  3276   3   1695   1694   1699
  3277   1   1694   1695    616
  3278   3   1694   1695   1700
  3279   3    616   1695   1700
  3280   1    615   1696   1697
  3281   4    615   1696   1709
  3282   4   1697   1696   1709
  3283   1   1696   1697    618
  3284   3   1696   1697   1701
  3285   3    618   1697   1701
  3286   1   1693   1698    617
  3287   3   1693   1698   1702
  3288   3    617   1698   1702
  3289   1   1704   1703   1708
  3290   3   1704   1703   1741
  3291   3   1708   1703   1741
  3292   1   1703   1704   1705
  3293   4   1703   1704   1709
  3294   4   1705   1704   1709
  3295   1   1704   1705   1706
  3296   3   1704   1705   1742
  3297   3   1706   1705   1742
  3298   1   1705   1706   1707
  3299   3   1705   1706   1743
  3300   3   1707   1706   1743
  3301   1   1706   1707   1708
  3302   2   1706   1707   2114
  3303   2   1708   1707   2114
  3304   1   1707   1708   1703
  3305   3   1707   1708   1744
  3306   3   1703   1708   1744
  3307   5   1696   1709   1704
  3308   5   1696   1709   1710
  3309   5   1696   1709   1721
  3310   5   1704   1709   1710
  3311   5   1704   1709   1721
  3312   5   1710   1709   1721
  3313   4   1711   1710   1709
  3314   4   1715   1710   1709
  3315   1   1711   1710   1715
  3316   1   1710   1711   1712
  3317   3   1710   1711   1745
  3318   3   1712   1711   1745
  3319   1   1711   1712   1713
  3320   3   1711   1712   1746
  3321   3   1713   1712   1746
  3322   1   1712   1713   1714
  3323   2   1712   1713   2101
  3324   2   1714   1713   2101
  3325   1   1713   1714   1715
  3326   3   1713   1714   1747
  3327   3   1715   1714   1747
  3328   1   1714   1715   1710
  3329   3   1714   1715   1748
  3330   3   1710   1715   1748
  3331   1   1717   1716   1721
  3332   3   1717   1716   1749
  3333   3   1721   1716   1749
  3334   1   1716   1717    638
  3335   3   1716   1717   1750
  3336   3    638   1717   1750
  3337   1    637   1718   1719
  3338   4    637   1718    642
  3339   4   1719   1718    642
  3340   1   1718   1719   1720
  3341   3   1718   1719   1751
  3342   3   1720   1719   1751
  3343   1   1719   1720    641
  3344   3   1719   1720   1752
  3345   3    641   1720   1752
  3346   1   1716   1721    640
  3347   4   1716   1721   1709
  3348   4    640   1721   1709
  3349   5    638   1722   1726
  3350   5    638   1722    649
  3351   5    638   1722    660
  3352   5   1726   1722    649
  3353   5   1726   1722    660
  3354   5    649   1722    660
  3355   1   1724   1723   1728
  3356   2   1724   1723   2156
  3357   2   1728   1723   2156
  3358   1   1723   1724   1725
  3359   3   1723   1724   1753
  3360   3   1725   1724   1753
  3361   1   1724   1725   1726
  3362   3   1724   1725   1754
  3363   3   1726   1725   1754
  3364   4   1725   1726   1722
  3365   1   1725   1726   1727
  3366   4   1727   1726   1722
  3367   1   1726   1727   1728
  3368   3   1726   1727   1755
  3369   3   1728   1727   1755
  3370   1   1727   1728   1723
  3371   3   1727   1728   1756
  3372   3   1723   1728   1756
  3373   4   1730   1729    642
  3374   4    654   1729    642
  3375   1   1730   1729    654
  3376   1   1729   1730   1191
  3377   3   1729   1730   1757
  3378   3   1191   1730   1757
  3379   1   1190   1731   1732
  3380   3   1190   1731   1758
  3381   3   1732   1731   1758
  3382   1   1731   1732   1733
  3383   2   1731   1732   2107
  3384   2   1733   1732   2107
  3385   1   1732   1733    114
  3386   3   1732   1733    679
  3387   3    114   1733    679
  3388   1    113   1734    649
  3389   3    113   1734   1760
  3390   3    649   1734   1760
  3391   1    656   1735    660
  3392   3    656   1735   1761
  3393   3    660   1735   1761
  3394   1    655   1736   1737
  3395   3    655   1736    682
  3396   3   1737   1736    682
  3397   1   1736   1737   1738
  3398   2   1736   1737   2119
  3399   2   1738   1737   2119
  3400   1   1737   1738   1739
  3401   3   1737   1738   1763
  3402   3   1739   1738   1763
  3403   1   1738   1739   1740
  3404   3   1738   1739   1764
  3405   3   1740   1739   1764
  3406   1   1739   1740    655
  3407   4   1739   1740    642
  3408   4    655   1740    642
  3409   1   1766   1765   1770
  3410   2   1766   1765   2132
  3411   2   1770   1765   2132
  3412   1   1765   1766   1767
  3413   3   1765   1766   1771
  3414   3   1767   1766   1771
  3415   1   1766   1767   1768
  3416   3   1766   1767   1772
  3417   3   1768   1767   1772
  3418   1   1767   1768   1769
  3419   4   1767   1768   1781
  3420   4   1769   1768   1781
  3421   1   1768   1769   1770
  3422   3   1768   1769   1773
  3423   3   1770   1769   1773
  3424   1   1769   1770   1765
  3425   3   1769   1770   1774
  3426   3   1765   1770   1774
  3427   1   1776   1775   1780
  3428   3   1776   1775   1813
  3429   3   1780   1775   1813
  3430   1   1775   1776   1777
  3431   4   1775   1776   1781
  3432   4   1777   1776   1781
  3433   1   1776   1777   1778
  3434   3   1776   1777   1814
  3435   3   1778   1777   1814
  3436   1   1777   1778   1779
  3437   3   1777   1778   1815
  3438   3   1779   1778   1815
  3439   1   1778   1779   1780
  3440   2   1778   1779   2084
  3441   2   1780   1779   2084
  3442   1   1779   1780   1775
  3443   3   1779   1780   1816
  3444   3   1775   1780   1816
  3445   5   1768   1781   1776
  3446   5   1768   1781   1782
  3447   5   1768   1781   1793
  3448   5   1776   1781   1782
  3449   5   1776   1781   1793
  3450   5   1782   1781   1793
  3451   4   1783   1782   1781
  3452   4   1787   1782   1781
  3453   1   1783   1782   1787
  3454   1   1782   1783   1784
  3455   3   1782   1783   1817
  3456   3   1784   1783   1817
  3457   1   1783   1784   1785
  3458   3   1783   1784   1818
  3459   3   1785   1784   1818
  3460   1   1784   1785   1786
  3461   2   1784   1785   2125
  3462   2   1786   1785   2125
  3463   1   1785   1786   1787
  3464   3   1785   1786   1819
  3465   3   1787   1786   1819
  3466   1   1782   1787   1786
  3467   3   1782   1787   1820
  3468   3   1786   1787   1820
  3469   1   1789   1788   1793
  3470   3   1789   1788   1821
  3471   3   1793   1788   1821
  3472   1   1788   1789   1790
  3473   3   1788   1789   1822
  3474   3   1790   1789   1822
  3475   1   1789   1790   1791
  3476   4   1789   1790   1794
  3477   4   1791   1790   1794
  3478   1   1790   1791   1792
  3479   3   1790   1791   1823
  3480   3   1792   1791   1823
  3481   1   1791   1792   1793
  3482   3   1791   1792   1824
  3483   3   1793   1792   1824
  3484   1   1788   1793   1792
  3485   4   1788   1793   1781
  3486   4   1792   1793   1781
  3487   5   1790   1794   1798
  3488   5   1790   1794   1801
  3489   5   1790   1794   1812
  3490   5   1798   1794   1801
  3491   5   1798   1794   1812
  3492   5   1801   1794   1812
  3493   1   1796   1795   1800
  3494   2   1796   1795   2089
  3495   2   1800   1795   2089
  3496   1   1795   1796   1797
  3497   3   1795   1796   1825
  3498   3   1797   1796   1825
  3499   1   1796   1797   1798
  3500   3   1796   1797   1826
  3501   3   1798   1797   1826
  3502   4   1797   1798   1794
  3503   1   1797   1798   1799
  3504   4   1799   1798   1794
  3505   1   1798   1799   1800
  3506   3   1798   1799   1827
  3507   3   1800   1799   1827
  3508   1   1795   1800   1799
  3509   3   1795   1800   1828
  3510   3   1799   1800   1828
  3511   4   1802   1801   1794
  3512   4   1806   1801   1794
  3513   1   1802   1801   1806
  3514   1   1801   1802   1803
  3515   3   1801   1802   1829
  3516   3   1803   1802   1829
  3517   1   1802   1803   1804
  3518   3   1802   1803   1830
  3519   3   1804   1803   1830
  3520   1   1803   1804   1805
  3521   2   1803   1804   2078
  3522   2   1805   1804   2078
  3523   1   1804   1805   1806
  3524   3   1804   1805   1831
  3525   3   1806   1805   1831
  3526   1   1801   1806   1805
  3527   3   1801   1806   1832
  3528   3   1805   1806   1832
  3529   1   1808   1807   1812
  3530   3   1808   1807   1833
  3531   3   1812   1807   1833
  3532   1   1807   1808   1809
  3533   3   1807   1808   1834
  3534   3   1809   1808   1834
  3535   1   1808   1809   1810
  3536   2   1808   1809   2113
  3537   2   1810   1809   2113
  3538   1   1809   1810   1811
  3539   3   1809   1810   1835
  3540   3   1811   1810   1835
  3541   1   1810   1811   1812
  3542   3   1810   1811   1836
  3543   3   1812   1811   1836
  3544   1   1807   1812   1811
  3545   4   1807   1812   1794
  3546   4   1811   1812   1794
  3547   1   1838   1837   1842
  3548   2   1838   1837   2060
  3549   2   1842   1837   2060
  3550   1   1837   1838   1839
  3551   3   1837   1838   1843
  3552   3   1839   1838   1843
  3553   1   1838   1839   1840
  3554   3   1838   1839   1844
  3555   3   1840   1839   1844
  3556   1   1839   1840   1841
  3557   4   1839   1840   1853
  3558   4   1841   1840   1853
  3559   1   1840   1841   1842
  3560   3   1840   1841   1845
  3561   3   1842   1841   1845
  3562   1   1837   1842   1841
  3563   3   1837   1842   1846
  3564   3   1841   1842   1846
  3565   1   1848   1847   1852
  3566   3   1848   1847   1885
  3567   3   1852   1847   1885
  3568   1   1847   1848   1849
  3569   4   1847   1848   1853
  3570   4   1849   1848   1853
  3571   1   1848   1849   1850
  3572   3   1848   1849   1886
  3573   3   1850   1849   1886
  3574   1   1849   1850   1851
  3575   3   1849   1850   1887
  3576   3   1851   1850   1887
  3577   1   1850   1851   1852
  3578   2   1850   1851   2150
  3579   2   1852   1851   2150
  3580   1   1847   1852   1851
  3581   3   1847   1852   1888
  3582   3   1851   1852   1888
  3583   5   1840   1853   1848
  3584   5   1840   1853   1854
  3585   5   1840   1853   1865
  3586   5   1848   1853   1854
  3587   5   1848   1853   1865
  3588   5   1854   1853   1865
  3589   4   1855   1854   1853
  3590   4   1859   1854   1853
  3591   1   1855   1854   1859
  3592   1   1854   1855   1316
  3593   3   1854   1855   1889
  3594   3   1316   1855   1889
  3595   1   1315   1856   1317
  3596   3   1315   1856   1890
  3597   3   1317   1856   1890
  3598   1   1316   1857   1858
  3599   2   1316   1857   1525
  3600   2   1858   1857   1525
  3601   1   1857   1858   1859
  3602   3   1857   1858   1891
  3603   3   1859   1858   1891
  3604   1   1858   1859   1854
  3605   3   1858   1859   1892
  3606   3   1854   1859   1892
  3607   1   1861   1860   1865
  3608   3   1861   1860   1893
  3609   3   1865   1860   1893
  3610   1   1860   1861   1862
  3611   3   1860   1861   1894
  3612   3   1862   1861   1894
  3613   1   1861   1862   1863
  3614   4   1861   1862   1866
  3615   4   1863   1862   1866
  3616   1   1862   1863   1864
  3617   3   1862   1863   1895
  3618   3   1864   1863   1895
  3619   1   1863   1864   1865
  3620   3   1863   1864   1896
  3621   3   1865   1864   1896
  3622   4   1864   1865   1853
  3623   4   1860   1865   1853
  3624   1   1864   1865   1860
  3625   5   1862   1866   1330
  3626   5   1862   1866   1333
  3627   5   1862   1866   1884
  3628   5   1330   1866   1333
  3629   5   1330   1866   1884
  3630   5   1333   1866   1884
  3631   1   1868   1867   1872
  3632   2   1868   1867   2090
  3633   2   1872   1867   2090
  3634   1   1867   1868   1329
  3635   3   1867   1868   1357
  3636   3   1329   1868   1357
  3637   1   1328   1869   1330
  3638   3   1328   1869   1898
  3639   3   1330   1869   1898
  3640   4   1329   1870   1326
  3641   1   1329   1870   1871
  3642   4   1871   1870   1326
  3643   1   1870   1871   1872
  3644   3   1870   1871   1899
  3645   3   1872   1871   1899
  3646   1   1871   1872   1867
  3647   3   1871   1872   1900
  3648   3   1867   1872   1900
  3649   4   1874   1873   1326
  3650   4   1878   1873   1326
  3651   1   1874   1873   1878
  3652   1   1873   1874   1875
  3653   3   1873   1874   1361
  3654   3   1875   1874   1361
  3655   1   1874   1875   1876
  3656   3   1874   1875   1902
  3657   3   1876   1875   1902
  3658   1   1875   1876   1877
  3659   2   1875   1876   2108
  3660   2   1877   1876   2108
  3661   1   1876   1877   1878
  3662   3   1876   1877   1903
  3663   3   1878   1877   1903
  3664   1   1873   1878   1877
  3665   3   1873   1878   1904
  3666   3   1877   1878   1904
  3667   1   1340   1879   1344
  3668   3   1340   1879   1905
  3669   3   1344   1879   1905
  3670   1   1339   1880   1881
  3671   3   1339   1880   1366
  3672   3   1881   1880   1366
  3673   1   1880   1881   1882
  3674   2   1880   1881   2071
  3675   2   1882   1881   2071
  3676   1   1881   1882   1883
  3677   3   1881   1882   1907
  3678   3   1883   1882   1907
  3679   1   1882   1883   1884
  3680   3   1882   1883   1908
  3681   3   1884   1883   1908
  3682   4   1883   1884   1866
  3683   1   1883   1884   1339
  3684   4   1339   1884   1866
  3685   1   1910   1909   1914
  3686   2   1910   1909   2102
  3687   2   1914   1909   2102
  3688   1   1909   1910   1911
  3689   3   1909   1910   1915
  3690   3   1911   1910   1915
  3691   1   1910   1911   1912
  3692   3   1910   1911   1916
  3693   3   1912   1911   1916
  3694   1   1911   1912   1913
  3695   4   1911   1912   1925
  3696   4   1913   1912   1925
  3697   1   1912   1913   1914
  3698   3   1912   1913   1917
  3699   3   1914   1913   1917
  3700   1   1909   1914   1913
  3701   3   1909   1914   1918
  3702   3   1913   1914   1918
  3703   1   1920   1919   1924
  3704   3   1920   1919   1957
  3705   3   1924   1919   1957
  3706   1   1919   1920   1921
  3707   4   1919   1920   1925
  3708   4   1921   1920   1925
  3709   1   1920   1921   1922
  3710   3   1920   1921   1958
  3711   3   1922   1921   1958
  3712   1   1921   1922   1923
  3713   3   1921   1922   1959
  3714   3   1923   1922   1959
  3715   1   1922   1923   1924
  3716   2   1922   1923   2072
  3717   2   1924   1923   2072
  3718   1   1923   1924   1919
  3719   3   1923   1924   1960
  3720   3   1919   1924   1960
  3721   5   1912   1925   1920
  3722   5   1912   1925   1926
  3723   5   1912   1925   1937
  3724   5   1920   1925   1926
  3725   5   1920   1925   1937
  3726   5   1926   1925   1937
  3727   4   1927   1926   1925
  3728   4   1931   1926   1925
  3729   1   1927   1926   1931
  3730   1   1926   1927   1928
  3731   3   1926   1927   1961
  3732   3   1928   1927   1961
  3733   1   1927   1928   1929
  3734   3   1927   1928   1962
  3735   3   1929   1928   1962
  3736   1   1928   1929   1930
  3737   2   1928   1929   2095
  3738   2   1930   1929   2095
  3739   1   1929   1930   1931
  3740   3   1929   1930   1963
  3741   3   1931   1930   1963
  3742   1   1930   1931   1926
  3743   3   1930   1931   1964
  3744   3   1926   1931   1964
  3745   1   1933   1932   1937
  3746   3   1933   1932   1965
  3747   3   1937   1932   1965
  3748   1   1932   1933   1934
  3749   3   1932   1933   1966
  3750   3   1934   1933   1966
  3751   1   1933   1934   1935
  3752   4   1933   1934   1938
  3753   4   1935   1934   1938
  3754   1   1934   1935   1936
  3755   3   1934   1935   1967
  3756   3   1936   1935   1967
  3757   1   1935   1936   1937
  3758   3   1935   1936   1968
  3759   3   1937   1936   1968
  3760   4   1936   1937   1925
  3761   1   1936   1937   1932
  3762   4   1932   1937   1925
  3763   5   1934   1938   1942
  3764   5   1934   1938   1945
  3765   5   1934   1938   1956
  3766   5   1942   1938   1945
  3767   5   1942   1938   1956
  3768   5   1945   1938   1956
  3769   1   1940   1939   1944
  3770   2   1940   1939   2053
  3771   2   1944   1939   2053
  3772   1   1939   1940   1941
  3773   3   1939   1940   1969
  3774   3   1941   1940   1969
  3775   1   1940   1941   1942
  3776   3   1940   1941   1970
  3777   3   1942   1941   1970
  3778   4   1941   1942   1938
  3779   4   1943   1942   1938
  3780   1   1941   1942   1943
  3781   1   1942   1943   1944
  3782   3   1942   1943   1971
  3783   3   1944   1943   1971
  3784   1   1943   1944   1939
  3785   3   1943   1944   1972
  3786   3   1939   1944   1972
  3787   4   1946   1945   1938
  3788   4   1950   1945   1938
  3789   1   1946   1945   1950
  3790   1   1945   1946   1947
  3791   3   1945   1946   1973
  3792   3   1947   1946   1973
  3793   1   1946   1947   1948
  3794   3   1946   1947   1974
  3795   3   1948   1947   1974
  3796   1   1947   1948   1949
  3797   2   1947   1948   2077
  3798   2   1949   1948   2077
  3799   1   1948   1949   1950
  3800   3   1948   1949   1975
  3801   3   1950   1949   1975
  3802   1   1949   1950   1945
  3803   3   1949   1950   1976
  3804   3   1945   1950   1976
  3805   1   1952   1951   1956
  3806   3   1952   1951   1977
  3807   3   1956   1951   1977
  3808   1   1951   1952   1953
  3809   3   1951   1952   1978
  3810   3   1953   1952   1978
  3811   1   1952   1953   1954
  3812   2   1952   1953   2143
  3813   2   1954   1953   2143
  3814   1   1953   1954   1955
  3815   3   1953   1954   1979
  3816   3   1955   1954   1979
  3817   1   1954   1955   1956
  3818   3   1954   1955   1980
  3819   3   1956   1955   1980
  3820   4   1955   1956   1938
  3821   1   1955   1956   1951
  3822   4   1951   1956   1938
  3823   1   1982   1981   1986
  3824   2   1982   1981   2066
  3825   2   1986   1981   2066
  3826   1   1981   1982   1983
  3827   3   1981   1982   1987
  3828   3   1983   1982   1987
  3829   1   1982   1983   1984
  3830   3   1982   1983   1988
  3831   3   1984   1983   1988
  3832   1   1983   1984   1985
  3833   4   1983   1984   1997
  3834   4   1985   1984   1997
  3835   1   1984   1985   1986
  3836   3   1984   1985   1989
  3837   3   1986   1985   1989
  3838   1   1981   1986   1985
  3839   3   1981   1986   1990
  3840   3   1985   1986   1990
  3841   1   1992   1991   1996
  3842   3   1992   1991   2029
  3843   3   1996   1991   2029
  3844   1   1991   1992   1993
  3845   4   1991   1992   1997
  3846   4   1993   1992   1997
  3847   1   1992   1993   1994
  3848   3   1992   1993   2030
  3849   3   1994   1993   2030
  3850   1   1993   1994   1995
  3851   3   1993   1994    951
  3852   3   1995   1994    951
  3853   1   1994   1995   1996
  3854   2   1994   1995   1040
  3855   2   1996   1995   1040
  3856   1   1995   1996   1991
  3857   3   1995   1996   2032
  3858   3   1991   1996   2032
  3859   5   1984   1997   1992
  3860   5   1984   1997   1998
  3861   5   1984   1997   2009
  3862   5   1992   1997   1998
  3863   5   1992   1997   2009
  3864   5   1998   1997   2009
  3865   4   1999   1998   1997
  3866   4   2003   1998   1997
  3867   1   1999   1998   2003
  3868   1   1998   1999    920
  3869   3   1998   1999    953
  3870   3    920   1999    953
  3871   1    919   2000    921
  3872   3    919   2000   2034
  3873   3    921   2000   2034
  3874   1    920   2001   2002
  3875   2    920   2001    979
  3876   2   2002   2001    979
  3877   1   2001   2002   2003
  3878   3   2001   2002   2035
  3879   3   2003   2002   2035
  3880   1   1998   2003   2002
  3881   3   1998   2003   2036
  3882   3   2002   2003   2036
  3883   1   2005   2004   2009
  3884   3   2005   2004   2037
  3885   3   2009   2004   2037
  3886   1   2004   2005   2006
  3887   3   2004   2005   2038
  3888   3   2006   2005   2038
  3889   1   2005   2006   2007
  3890   4   2005   2006   2010
  3891   4   2007   2006   2010
  3892   1   2006   2007   2008
  3893   3   2006   2007   2039
  3894   3   2008   2007   2039
  3895   1   2007   2008   2009
  3896   3   2007   2008   2040
  3897   3   2009   2008   2040
  3898   1   2008   2009   2004
  3899   4   2008   2009   1997
  3900   4   2004   2009   1997
  3901   5   2006   2010   2014
  3902   5   2006   2010   2017
  3903   5   2006   2010   2028
  3904   5   2014   2010   2017
  3905   5   2014   2010   2028
  3906   5   2017   2010   2028
  3907   1    932   2011   2016
  3908   2    932   2011   2054
  3909   2   2016   2011   2054
  3910   1    931   2012   2013
  3911   3    931   2012   2041
  3912   3   2013   2012   2041
  3913   1   2012   2013   2014
  3914   3   2012   2013   2042
  3915   3   2014   2013   2042
  3916   4   2013   2014   2010
  3917   4    935   2014   2010
  3918   1   2013   2014    935
  3919   1    934   2015   2016
  3920   3    934   2015   2043
  3921   3   2016   2015   2043
  3922   1   2015   2016   2011
  3923   3   2015   2016   2044
  3924   3   2011   2016   2044
  3925   4   2018   2017   2010
  3926   4    942   2017   2010
  3927   1   2018   2017    942
  3928   1   2017   2018   2019
  3929   3   2017   2018   2045
  3930   3   2019   2018   2045
  3931   1   2018   2019    940
  3932   3   2018   2019   1506
  3933   3    940   2019   1506
  3934   1    939   2020   2021
  3935   2    939   2020   1598
  3936   2   2021   2020   1598
  3937   1   2020   2021   2022
  3938   3   2020   2021   2047
  3939   3   2022   2021   2047
  3940   1   2021   2022    937
  3941   3   2021   2022   2048
  3942   3    937   2022   2048
  3943   1   2024   2023   2028
  3944   3   2024   2023   2049
  3945   3   2028   2023   2049
  3946   1   2023   2024   2025
  3947   3   2023   2024   2050
  3948   3   2025   2024   2050
  3949   1   2024   2025   2026
  3950   2   2024   2025   2083
  3951   2   2026   2025   2083
  3952   1   2025   2026   2027
  3953   3   2025   2026   2051
  3954   3   2027   2026   2051
  3955   1   2026   2027   2028
  3956   3   2026   2027   2052
  3957   3   2028   2027   2052
  3958   4   2023   2028   2010
  3959   4   2027   2028   2010
  3960   1   2023   2028   2027
  3961   6   1939   2053   2054
  3962   7   1939   2053   2055
  3963   7   1939   2053   2056
  3964   8   2055   2053   2054
  3965   8   2056   2053   2054
  3966   9   2055   2053   2056
  3967   6   2011   2054   2053
  3968   8   2057   2054   2053
  3969   8   2058   2054   2053
  3970   7   2011   2054   2057
  3971   7   2011   2054   2058
  3972   9   2057   2054   2058
  3973   6    921   2059   2060
  3974   7    921   2059   2061
  3975   7    921   2059   2062
  3976   8   2061   2059   2060
  3977   8   2062   2059   2060
  3978   9   2061   2059   2062
  3979   6   1837   2060   2059
  3980   7   1837   2060   2063
  3981   7   1837   2060   2064
  3982   8   2063   2060   2059
  3983   8   2064   2060   2059
  3984   9   2063   2060   2064
  3985   6   1317   2065   2066
  3986   7   1317   2065   2067
  3987   7   1317   2065   2068
  3988   8   2067   2065   2066
  3989   8   2068   2065   2066
  3990   9   2067   2065   2068
  3991   6   1981   2066   2065
  3992   8   2069   2066   2065
  3993   8   2070   2066   2065
  3994   7   1981   2066   2069
  3995   7   1981   2066   2070
  3996   9   2069   2066   2070
  3997   6   1881   2071   2072
  3998   7   1881   2071   2073
  3999   7   1881   2071   2074
  4000   8   2073   2071   2072
  4001   8   2074   2071   2072
  4002   9   2073   2071   2074
  4003   6   1923   2072   2071
  4004   7   1923   2072   2075
  4005   7   1923   2072   2076
  4006   8   2075   2072   2071
  4007   8   2076   2072   2071
  4008   9   2075   2072   2076
  4009   6   1948   2077   2078
  4010   7   1948   2077   2079
  4011   7   1948   2077   2080
  4012   8   2079   2077   2078
  4013   8   2080   2077   2078
  4014   9   2079   2077   2080
  4015   6   1804   2078   2077
  4016   7   1804   2078   1541
  4017   7   1804   2078   2082
  4018   8   1541   2078   2077
  4019   8   2082   2078   2077
  4020   9   1541   2078   2082
  4021   6   2025   2083   2084
  4022   7   2025   2083   2085
  4023   7   2025   2083   2086
  4024   8   2085   2083   2084
  4025   8   2086   2083   2084
  4026   9   2085   2083   2086
  4027   6   1779   2084   2083
  4028   8   2087   2084   2083
  4029   8   2088   2084   2083
  4030   7   1779   2084   2087
  4031   7   1779   2084   2088
  4032   9   2087   2084   2088
  4033   6   1795   2089   2090
  4034   7   1795   2089   2091
  4035   7   1795   2089   2092
  4036   8   2091   2089   2090
  4037   8   2092   2089   2090
  4038   9   2091   2089   2092
  4039   6   1867   2090   2089
  4040   7   1867   2090   2093
  4041   7   1867   2090   2094
  4042   8   2093   2090   2089
  4043   8   2094   2090   2089
  4044   9   2093   2090   2094
  4045   6   1929   2095   2096
  4046   7   1929   2095   2097
  4047   7   1929   2095   2098
  4048   8   2097   2095   2096
  4049   8   2098   2095   2096
  4050   9   2097   2095   2098
  4051   6   1693   2096   2095
  4052   7   1693   2096   2099
  4053   7   1693   2096   2100
  4054   8   2099   2096   2095
  4055   8   2100   2096   2095
  4056   9   2099   2096   2100
  4057   6   1713   2101   2102
  4058   7   1713   2101   2103
  4059   7   1713   2101   2104
  4060   8   2103   2101   2102
  4061   8   2104   2101   2102
  4062   9   2103   2101   2104
  4063   6   1909   2102   2101
  4064   7   1909   2102   2105
  4065   7   1909   2102   2106
  4066   8   2105   2102   2101
  4067   8   2106   2102   2101
  4068   9   2105   2102   2106
  4069   6   1732   2107   2108
  4070   7   1732   2107   2109
  4071   7   1732   2107   2110
  4072   8   2109   2107   2108
  4073   8   2110   2107   2108
  4074   9   2109   2107   2110
  4075   6   1876   2108   2107
  4076   8   2111   2108   2107
  4077   8   2112   2108   2107
  4078   7   1876   2108   2111
  4079   7   1876   2108   2112
  4080   9   2111   2108   2112
  4081   6   1809   2113   2114
  4082   7   1809   2113   2115
  4083   7   1809   2113   2116
  4084   8   2115   2113   2114
  4085   8   2116   2113   2114
  4086   9   2115   2113   2116
  4087   6   1707   2114   2113
  4088   7   1707   2114   2117
  4089   7   1707   2114   2118
  4090   8   2117   2114   2113
  4091   8   2118   2114   2113
  4092   9   2117   2114   2118
  4093   6   1737   2119   2120
  4094   7   1737   2119   2121
  4095   7   1737   2119   2122
  4096   8   2121   2119   2120
  4097   8   2122   2119   2120
  4098   9   2121   2119   2122
  4099   6    915   2120   2119
  4100   7    915   2120   2123
  4101   7    915   2120   1044
  4102   8   2123   2120   2119
  4103   8   1044   2120   2119
  4104   9   2123   2120   1044
  4105   6   1785   2125   2126
  4106   7   1785   2125   2127
  4107   7   1785   2125   2128
  4108   8   2127   2125   2126
  4109   8   2128   2125   2126
  4110   9   2127   2125   2128
  4111   6   1621   2126   2125
  4112   7   1621   2126   2129
  4113   7   1621   2126   2130
  4114   8   2129   2126   2125
  4115   8   2130   2126   2125
  4116   9   2129   2126   2130
  4117   6   1641   2131   2132
  4118   7   1641   2131   2133
  4119   7   1641   2131   2134
  4120   8   2133   2131   2132
  4121   8   2134   2131   2132
  4122   9   2133   2131   2134
  4123   6   1765   2132   2131
  4124   7   1765   2132   2135
  4125   7   1765   2132   2136
  4126   8   2135   2132   2131
  4127   8   2136   2132   2131
  4128   9   2135   2132   2136
  4129   6    580   2137   2138
  4130   7    580   2137   2139
  4131   7    580   2137   1600
  4132   8   2139   2137   2138
  4133   8   1600   2137   2138
  4134   9   2139   2137   1600
  4135   6   1480   2138   2137
  4136   7   1480   2138   1601
  4137   7   1480   2138   1062
  4138   8   1601   2138   2137
  4139   8   1062   2138   2137
  4140   9   1601   2138   1062
  4141   6   1953   2143   2144
  4142   7   1953   2143   2145
  4143   7   1953   2143   2146
  4144   8   2145   2143   2144
  4145   8   2146   2143   2144
  4146   9   2145   2143   2146
  4147   6   1635   2144   2143
  4148   8   2147   2144   2143
  4149   8   2148   2144   2143
  4150   7   1635   2144   2147
  4151   7   1635   2144   2148
  4152   9   2147   2144   2148
  4153   6   1665   2149   1610
  4154   7   1665   2149   2151
  4155   7   1665   2149   2152
  4156   8   2151   2149   1610
  4157   8   2152   2149   1610
  4158   9   2151   2149   2152
  4159   6   1851   2150   1609
  4160   7   1851   2150   2153
  4161   7   1851   2150   2154
  4162   8   2153   2150   1609
  4163   8   2154   2150   1609
  4164   9   2153   2150   2154
  4165   6   1651   2155   2156
  4166   7   1651   2155   2157
  4167   7   1651   2155   2158
  4168   8   2157   2155   2156
  4169   8   2158   2155   2156
  4170   9   2157   2155   2158
  4171   6   1723   2156   2155
  4172   7   1723   2156   2159
  4173   7   1723   2156   2160
  4174   8   2159   2156   2155
  4175   8   2160   2156   2155
  4176   9   2159   2156   2160

Dihedrals

     1   1      6      1      2      3
     2   2      6      1      2      7
     3   3      3      2      1    506
     4   4      7      2      1    506
     5   1      2      1      6      5
     6   2      2      1      6     10
     7   3      5      6      1    506
     8   4     10      6      1    506
     9   5      2      1    506    505
    10   6      2      1    506    509
    11   6      2      1    506    510
    12   5      6      1    506    505
    13   6      6      1    506    509
    14   6      6      1    506    510
    15   1      1      2      3      4
    16   2      1      2      3      8
    17   2      4      3      2      7
    18   7      7      2      3      8
    19   1      2      3      4      5
    20   8      2      3      4    557
    21   2      5      4      3      8
    22   9      8      3      4    557
    23   1      3      4      5      6
    24   2      3      4      5    549
    25   8      6      5      4    557
    26   9    549      5      4    557
    27  10      3      4    557    552
    28  10      3      4    557    558
    29  10      3      4    557    569
    30  10      5      4    557    552
    31  10      5      4    557    558
    32  10      5      4    557    569
    33   1      4      5      6      1
    34   2      4      5      6     10
    35   2      1      6      5    549
    36   7    549      5      6     10
    37   1     16     11     12     13
    38   8     16     11     12     17
    39   2     13     12     11     49
    40   9     49     11     12     17
    41   1     12     11     16     15
    42   2     12     11     16     52
    43   2     15     16     11     49
    44   7     49     11     16     52
    45   1     11     12     13     14
    46   2     11     12     13     50
    47   8     14     13     12     17
    48   9     50     13     12     17
    49  10     11     12     17    544
    50  10     11     12     17     18
    51  10     11     12     17     29
    52  10     13     12     17    544
    53  10     13     12     17     18
    54  10     13     12     17     29
    55   1     12     13     14     15
    56   2     12     13     14     51
    57   2     15     14     13     50
    58   7     50     13     14     51
    59   1     13     14     15     16
    60   3     13     14     15    524
    61   2     16     15     14     51
    62   4     51     14     15    524
    63   1     14     15     16     11
    64   2     14     15     16     52
    65   3     11     16     15    524
    66   4     52     16     15    524
    67   5     14     15    524    523
    68   6     14     15    524    527
    69   6     14     15    524    528
    70   5     16     15    524    523
    71   6     16     15    524    527
    72   6     16     15    524    528
    73  10    543    544     17     12
    74  10    545    544     17     12
    75  10    543    544     17     18
    76  10    545    544     17     18
    77  10    543    544     17     29
    78  10    545    544     17     29
    79  10    559     18     17    544
    80  10     23     18     17    544
    81  10    559     18     17     12
    82  10     23     18     17     12
    83  10    559     18     17     29
    84  10     23     18     17     29
    85  10    568     29     17    544
    86  10     24     29     17    544
    87  10    568     29     17     12
    88  10     24     29     17     12
    89  10    568     29     17     18
    90  10     24     29     17     18
    91   8     20    559     18     17
    92   9    593    559     18     17
    93   1     23     18    559     20
    94   2     23     18    559    593
    95   8     22     23     18     17
    96   9     56     23     18     17
    97   1    559     18     23     22
    98   2    559     18     23     56
    99   8    560     19    558    557
   100   1    560     19    558    563
   101   9     53     19    558    557
   102   2    563    558     19     53
   103   1    558     19    560    561
   104   2    558     19    560     54
   105   2    561    560     19     53
   106   7     53     19    560     54
   107   1     21     20    559     18
   108   2     21     20    559    593
   109   2     18    559     20    594
   110   7    594     20    559    593
   111   1    559     20     21     22
   112   3    559     20     21    511
   113   2     22     21     20    594
   114   4    594     20     21    511
   115   1     20     21     22     23
   116   2     20     21     22     55
   117   3     23     22     21    511
   118   4     55     22     21    511
   119   5     20     21    511    512
   120   6     20     21    511    513
   121   6     20     21    511    514
   122   5     22     21    511    512
   123   6     22     21    511    513
   124   6     22     21    511    514
   125   1     21     22     23     18
   126   2     21     22     23     56
   127   2     18     23     22     55
   128   7     55     22     23     56
   129   1     29     24     25     26
   130   2     29     24     25     58
   131   2     26     25     24     57
   132   7     57     24     25     58
   133   1     25     24     29    568
   134   8     25     24     29     17
   135   2    568     29     24     57
   136   9     57     24     29     17
   137   1     24     25     26    567
   138   8     24     25     26     30
   139   2    567     26     25     58
   140   9     58     25     26     30
   141   1     25     26    567    568
   142   2     25     26    567    599
   143   8    568    567     26     30
   144   9    599    567     26     30
   145  10     25     26     30     34
   146  10     25     26     30     37
   147  10     25     26     30     48
   148  10    567     26     30     34
   149  10    567     26     30     37
   150  10    567     26     30     48
   151   1     28     27    566    565
   152   8     28     27    566    570
   153   2    565    566     27     59
   154   9     59     27    566    570
   155   1    566     27     28    569
   156   2    566     27     28     60
   157   2    569     28     27     59
   158   7     59     27     28     60
   159   1     27     28    569    564
   160   8     27     28    569    557
   161   2    564    569     28     60
   162   9     60     28    569    557
   163   1     24     29    568    567
   164   2     24     29    568    600
   165   8    567    568     29     17
   166   9    600    568     29     17
   167  10     33     34     30     26
   168  10     35     34     30     26
   169  10     33     34     30     37
   170  10     35     34     30     37
   171  10     33     34     30     48
   172  10     35     34     30     48
   173  10    578     37     30     26
   174  10     42     37     30     26
   175  10    578     37     30     34
   176  10     42     37     30     34
   177  10    578     37     30     48
   178  10     42     37     30     48
   179  10     47     48     30     26
   180  10     43     48     30     26
   181  10     47     48     30     34
   182  10     43     48     30     34
   183  10     47     48     30     37
   184  10     43     48     30     37
   185   1     36     31     32     33
   186   2     36     31     32     61
   187   3     33     32     31    535
   188   4     61     32     31    535
   189   1     32     31     36     35
   190   2     32     31     36     64
   191   3     35     36     31    535
   192   4     64     36     31    535
   193   5     32     31    535    536
   194   6     32     31    535    537
   195   6     32     31    535    538
   196   5     36     31    535    536
   197   6     36     31    535    537
   198   6     36     31    535    538
   199   1     31     32     33     34
   200   2     31     32     33     62
   201   2     34     33     32     61
   202   7     61     32     33     62
   203   8     32     33     34     30
   204   1     32     33     34     35
   205   9     62     33     34     30
   206   2     35     34     33     62
   207   1     33     34     35     36
   208   2     33     34     35     63
   209   8     36     35     34     30
   210   9     63     35     34     30
   211   1     34     35     36     31
   212   2     34     35     36     64
   213   2     31     36     35     63
   214   7     63     35     36     64
   215   8    579    578     37     30
   216   9    605    578     37     30
   217   1     42     37    578    579
   218   2     42     37    578    605
   219   8     41     42     37     30
   220   9     68     42     37     30
   221   1    578     37     42     41
   222   2    578     37     42     68
   223   8     39     38    577    570
   224   1     39     38    577    582
   225   9     65     38    577    570
   226   2    582    577     38     65
   227   1    577     38     39    580
   228   2    577     38     39   1146
   229   2    580     39     38     65
   230   7     65     38     39   1146
   231   1     38     39    580    581
   232   3     38     39    580   2137
   233   2    581    580     39   1146
   234   4   1146     39    580   2137
   235   1     41     40    579    578
   236   2     41     40    579   1686
   237   3    578    579     40   1597
   238   4   1686    579     40   1597
   239   1    579     40     41     42
   240   2    579     40     41     67
   241   3     42     41     40   1597
   242   4     67     41     40   1597
   243   5    579     40   1597   1598
   244   6    579     40   1597   1599
   245   6    579     40   1597   2140
   246   5     41     40   1597   1598
   247   6     41     40   1597   1599
   248   6     41     40   1597   2140
   249   1     40     41     42     37
   250   2     40     41     42     68
   251   2     37     42     41     67
   252   7     67     41     42     68
   253   1     48     43    584    585
   254   2     48     43    584    610
   255   2    585    584     43     69
   256   7     69     43    584    610
   257   1    584     43     48     47
   258   8    584     43     48     30
   259   2     47     48     43     69
   260   9     69     43     48     30
   261   1     45     44    583    588
   262   2     45     44    583    609
   263   2    588    583     44     70
   264   7     70     44    583    609
   265   1    583     44     45     46
   266   3    583     44     45    529
   267   2     46     45     44     70
   268   4     70     44     45    529
   269   1     44     45     46    587
   270   2     44     45     46     71
   271   3    587     46     45    529
   272   4     71     46     45    529
   273   5     44     45    529   1070
   274   6     44     45    529    531
   275   6     44     45    529    532
   276   5     46     45    529   1070
   277   6     46     45    529    531
   278   6     46     45    529    532
   279   1     45     46    587    588
   280   2     45     46    587    612
   281   2    588    587     46     71
   282   7     71     46    587    612
   283   1     48     47    586    585
   284   2     48     47    586    611
   285   2    585    586     47     72
   286   7     72     47    586    611
   287   8    586     47     48     30
   288   1    586     47     48     43
   289   9     72     47     48     30
   290   2     43     48     47     72
   291   1     78     73     74     75
   292   2     78     73     74     79
   293   3     75     74     73    476
   294   4     79     74     73    476
   295   1     74     73     78   1157
   296   2     74     73     78     82
   297   3   1157     78     73    476
   298   4     82     78     73    476
   299   5     74     73    476    475
   300   6     74     73    476    479
   301   6     74     73    476    480
   302   5     78     73    476    475
   303   6     78     73    476    479
   304   6     78     73    476    480
   305   1     73     74     75   1156
   306   2     73     74     75     80
   307   2   1156     75     74     79
   308   7     79     74     75     80
   309   1     74     75   1156   1157
   310   8     74     75   1156   1169
   311   2   1157   1156     75     80
   312   9     80     75   1156   1169
   313   1     77     76   1155   1154
   314   2     77     76   1155   1160
   315   8   1154   1155     76     89
   316   9   1160   1155     76     89
   317   1   1155     76     77   1158
   318   2   1155     76     77     81
   319   8   1158     77     76     89
   320   9     81     77     76     89
   321  10   1155     76     89     84
   322  10   1155     76     89     90
   323  10   1155     76     89    101
   324  10     77     76     89     84
   325  10     77     76     89     90
   326  10     77     76     89    101
   327   1     76     77   1158   1153
   328   2     76     77   1158   1162
   329   2   1153   1158     77     81
   330   7     81     77   1158   1162
   331   1     73     78   1157   1156
   332   2     73     78   1157   1161
   333   2   1156   1157     78     82
   334   7     82     78   1157   1161
   335   1     88     83     84     85
   336   8     88     83     84     89
   337   2     85     84     83    121
   338   9    121     83     84     89
   339   1     84     83     88     87
   340   2     84     83     88    124
   341   2     87     88     83    121
   342   7    121     83     88    124
   343   1     83     84     85     86
   344   2     83     84     85    122
   345   8     86     85     84     89
   346   9    122     85     84     89
   347  10     83     84     89     76
   348  10     83     84     89     90
   349  10     83     84     89    101
   350  10     85     84     89     76
   351  10     85     84     89     90
   352  10     85     84     89    101
   353   1     84     85     86     87
   354   2     84     85     86    123
   355   2     87     86     85    122
   356   7    122     85     86    123
   357   1     85     86     87     88
   358   3     85     86     87    494
   359   2     88     87     86    123
   360   4    123     86     87    494
   361   1     86     87     88     83
   362   2     86     87     88    124
   363   3     83     88     87    494
   364   4    124     88     87    494
   365   5     86     87    494    493
   366   6     86     87    494    497
   367   6     86     87    494    498
   368   5     88     87    494    493
   369   6     88     87    494    497
   370   6     88     87    494    498
   371  10     91     90     89     76
   372  10     95     90     89     76
   373  10     91     90     89     84
   374  10     95     90     89     84
   375  10     91     90     89    101
   376  10     95     90     89    101
   377  10     96    101     89     76
   378  10   1180    101     89     76
   379  10     96    101     89     84
   380  10   1180    101     89     84
   381  10     96    101     89     90
   382  10   1180    101     89     90
   383   8     92     91     90     89
   384   9    125     91     90     89
   385   1     95     90     91     92
   386   2     95     90     91    125
   387   8     94     95     90     89
   388   9    128     95     90     89
   389   1     91     90     95     94
   390   2     91     90     95    128
   391   1     90     91     92     93
   392   2     90     91     92    126
   393   2     93     92     91    125
   394   7    125     91     92    126
   395   1     91     92     93     94
   396   3     91     92     93    481
   397   2     94     93     92    126
   398   4    126     92     93    481
   399   1     92     93     94     95
   400   2     92     93     94    127
   401   3     95     94     93    481
   402   4    127     94     93    481
   403   5     92     93    481    482
   404   6     92     93    481    483
   405   6     92     93    481    484
   406   5     94     93    481    482
   407   6     94     93    481    483
   408   6     94     93    481    484
   409   1     93     94     95     90
   410   2     93     94     95    128
   411   2     90     95     94    127
   412   7    127     94     95    128
   413   1    101     96     97   1178
   414   2    101     96     97    130
   415   2   1178     97     96    129
   416   7    129     96     97    130
   417   1     97     96    101   1180
   418   8     97     96    101     89
   419   2   1180    101     96    129
   420   9    129     96    101     89
   421   1     96     97   1178   1179
   422   8     96     97   1178    102
   423   2   1179   1178     97    130
   424   9    130     97   1178    102
   425   1     99     98   1177   1176
   426   2     99     98   1177   1210
   427   8   1176   1177     98   1182
   428   9   1210   1177     98   1182
   429   1   1177     98     99    100
   430   2   1177     98     99    131
   431   8    100     99     98   1182
   432   9    131     99     98   1182
   433  10   1177     98   1182   1186
   434  10   1177     98   1182    109
   435  10   1177     98   1182    120
   436  10     99     98   1182   1186
   437  10     99     98   1182    109
   438  10     99     98   1182    120
   439   1     98     99    100   1181
   440   2     98     99    100    132
   441   2   1181    100     99    131
   442   7    131     99    100    132
   443   1     99    100   1181   1176
   444   8     99    100   1181   1169
   445   2   1176   1181    100    132
   446   9    132    100   1181   1169
   447   1     96    101   1180   1179
   448   2     96    101   1180   1212
   449   8   1179   1180    101     89
   450   9   1212   1180    101     89
   451  10     97   1178    102    106
   452  10   1179   1178    102    106
   453  10     97   1178    102   1189
   454  10   1179   1178    102   1189
   455  10     97   1178    102   1200
   456  10   1179   1178    102   1200
   457  10    105    106    102   1178
   458  10    107    106    102   1178
   459  10    105    106    102   1189
   460  10    107    106    102   1189
   461  10    105    106    102   1200
   462  10    107    106    102   1200
   463  10   1190   1189    102   1178
   464  10    114   1189    102   1178
   465  10   1190   1189    102    106
   466  10    114   1189    102    106
   467  10   1190   1189    102   1200
   468  10    114   1189    102   1200
   469  10   1199   1200    102   1178
   470  10    115   1200    102   1178
   471  10   1199   1200    102    106
   472  10    115   1200    102    106
   473  10   1199   1200    102   1189
   474  10    115   1200    102   1189
   475   1    108    103    104    105
   476   2    108    103    104    133
   477   3    105    104    103    536
   478   4    133    104    103    536
   479   1    104    103    108    107
   480   2    104    103    108    136
   481   3    107    108    103    536
   482   4    136    108    103    536
   483   5    104    103    536    535
   484   6    104    103    536    539
   485   6    104    103    536    540
   486   5    108    103    536    535
   487   6    108    103    536    539
   488   6    108    103    536    540
   489   1    103    104    105    106
   490   2    103    104    105    134
   491   2    106    105    104    133
   492   7    133    104    105    134
   493   8    104    105    106    102
   494   1    104    105    106    107
   495   9    134    105    106    102
   496   2    107    106    105    134
   497   1    105    106    107    108
   498   2    105    106    107    135
   499   8    108    107    106    102
   500   9    135    107    106    102
   501   1    106    107    108    103
   502   2    106    107    108    136
   503   2    103    108    107    135
   504   7    135    107    108    136
   505  10    110    109   1182     98
   506  10    110    109   1182   1186
   507  10    110    109   1182    120
   508  10   1194    109   1182     98
   509  10   1194    109   1182   1186
   510  10   1194    109   1182    120
   511   8    651    110    109   1182
   512   9    137    110    109   1182
   513   1   1194    109    110    651
   514   2   1194    109    110    137
   515   8    653   1194    109   1182
   516   9   1220   1194    109   1182
   517   1    110    109   1194    653
   518   2    110    109   1194   1220
   519   1    109    110    651    652
   520   2    109    110    651    678
   521   2    652    651    110    137
   522   7    137    110    651    678
   523   1    112    111    650    649
   524   2    112    111    650    677
   525   2    649    650    111    138
   526   7    138    111    650    677
   527   1    650    111    112    113
   528   3    650    111    112    487
   529   2    113    112    111    138
   530   4    138    111    112    487
   531   1    111    112    113   1734
   532   2    111    112    113   1219
   533   3   1734    113    112    487
   534   4   1219    113    112    487
   535   5    111    112    487    488
   536   6    111    112    487    489
   537   6    111    112    487    490
   538   5    113    112    487    488
   539   6    113    112    487    489
   540   6    113    112    487    490
   541   1    112    113   1734    649
   542   2    112    113   1734   1760
   543   2    649   1734    113   1219
   544   7   1219    113   1734   1760
   545   1   1189    114   1733   1732
   546   2   1189    114   1733    679
   547   2   1732   1733    114    140
   548   7    140    114   1733    679
   549   8   1733    114   1189    102
   550   1   1733    114   1189   1190
   551   9    140    114   1189    102
   552   2   1190   1189    114    140
   553   1   1200    115   1196   1197
   554   2   1200    115   1196    142
   555   2   1197   1196    115    141
   556   7    141    115   1196    142
   557   1   1196    115   1200   1199
   558   8   1196    115   1200    102
   559   2   1199   1200    115    141
   560   9    141    115   1200    102
   561   1    117    116   1195    120
   562   2    117    116   1195   1221
   563   2    120   1195    116   1222
   564   7   1222    116   1195   1221
   565   1   1195    116    117    118
   566   3   1195    116    117    499
   567   2    118    117    116   1222
   568   4   1222    116    117    499
   569   1    116    117    118    119
   570   2    116    117    118    143
   571   3    119    118    117    499
   572   4    143    118    117    499
   573   5    116    117    499    500
   574   6    116    117    499    501
   575   6    116    117    499    502
   576   5    118    117    499    500
   577   6    118    117    499    501
   578   6    118    117    499    502
   579   1    117    118    119    120
   580   2    117    118    119    144
   581   2    120    119    118    143
   582   7    143    118    119    144
   583   1    118    119    120   1195
   584   8    118    119    120   1182
   585   2   1195    120    119    144
   586   9    144    119    120   1182
   587   1    119    120   1195    116
   588   2    119    120   1195   1221
   589   8    116   1195    120   1182
   590   9   1221   1195    120   1182
   591  10    119    120   1182     98
   592  10    119    120   1182   1186
   593  10    119    120   1182    109
   594  10   1195    120   1182     98
   595  10   1195    120   1182   1186
   596  10   1195    120   1182    109
   597   1    150    145    146    147
   598   2    150    145    146    151
   599   3    147    146    145    512
   600   4    151    146    145    512
   601   1    146    145    150    149
   602   2    146    145    150    154
   603   3    149    150    145    512
   604   4    154    150    145    512
   605   5    146    145    512    511
   606   6    146    145    512    515
   607   6    146    145    512    516
   608   5    150    145    512    511
   609   6    150    145    512    515
   610   6    150    145    512    516
   611   1    145    146    147    148
   612   2    145    146    147    152
   613   2    148    147    146    151
   614   7    151    146    147    152
   615   1    146    147    148    149
   616   8    146    147    148    161
   617   2    149    148    147    152
   618   9    152    147    148    161
   619   1    147    148    149    150
   620   2    147    148    149    153
   621   8    150    149    148    161
   622   9    153    149    148    161
   623  10    147    148    161    156
   624  10    147    148    161    162
   625  10    147    148    161    173
   626  10    149    148    161    156
   627  10    149    148    161    162
   628  10    149    148    161    173
   629   1    148    149    150    145
   630   2    148    149    150    154
   631   2    145    150    149    153
   632   7    153    149    150    154
   633   1    160    155    156    157
   634   8    160    155    156    161
   635   2    157    156    155    193
   636   9    193    155    156    161
   637   1    156    155    160    159
   638   2    156    155    160    196
   639   2    159    160    155    193
   640   7    193    155    160    196
   641   1    155    156    157    158
   642   2    155    156    157    194
   643   8    158    157    156    161
   644   9    194    157    156    161
   645  10    155    156    161    148
   646  10    155    156    161    162
   647  10    155    156    161    173
   648  10    157    156    161    148
   649  10    157    156    161    162
   650  10    157    156    161    173
   651   1    156    157    158    159
   652   2    156    157    158    195
   653   2    159    158    157    194
   654   7    194    157    158    195
   655   1    157    158    159    160
   656   3    157    158    159    464
   657   2    160    159    158    195
   658   4    195    158    159    464
   659   1    158    159    160    155
   660   2    158    159    160    196
   661   3    155    160    159    464
   662   4    196    160    159    464
   663   5    158    159    464    463
   664   6    158    159    464    467
   665   6    158    159    464    468
   666   5    160    159    464    463
   667   6    160    159    464    467
   668   6    160    159    464    468
   669  10    163    162    161    148
   670  10    167    162    161    148
   671  10    163    162    161    156
   672  10    167    162    161    156
   673  10    163    162    161    173
   674  10    167    162    161    173
   675  10    168    173    161    148
   676  10    172    173    161    148
   677  10    168    173    161    156
   678  10    172    173    161    156
   679  10    168    173    161    162
   680  10    172    173    161    162
   681   8    164    163    162    161
   682   9    197    163    162    161
   683   1    167    162    163    164
   684   2    167    162    163    197
   685   8    166    167    162    161
   686   9    200    167    162    161
   687   1    163    162    167    166
   688   2    163    162    167    200
   689   1    162    163    164    165
   690   2    162    163    164    198
   691   2    165    164    163    197
   692   7    197    163    164    198
   693   1    163    164    165    166
   694   3    163    164    165    505
   695   2    166    165    164    198
   696   4    198    164    165    505
   697   1    164    165    166    167
   698   2    164    165    166    199
   699   3    167    166    165    505
   700   4    199    166    165    505
   701   5    164    165    505    506
   702   6    164    165    505    507
   703   6    164    165    505    508
   704   5    166    165    505    506
   705   6    166    165    505    507
   706   6    166    165    505    508
   707   1    165    166    167    162
   708   2    165    166    167    200
   709   2    162    167    166    199
   710   7    199    166    167    200
   711   1    173    168    169    170
   712   2    173    168    169    202
   713   2    170    169    168    201
   714   7    201    168    169    202
   715   1    169    168    173    172
   716   8    169    168    173    161
   717   2    172    173    168    201
   718   9    201    168    173    161
   719   1    168    169    170    171
   720   8    168    169    170    174
   721   2    171    170    169    202
   722   9    202    169    170    174
   723   1    169    170    171    172
   724   2    169    170    171    203
   725   8    172    171    170    174
   726   9    203    171    170    174
   727  10    169    170    174    178
   728  10    169    170    174    181
   729  10    169    170    174    192
   730  10    171    170    174    178
   731  10    171    170    174    181
   732  10    171    170    174    192
   733   1    170    171    172    173
   734   2    170    171    172    204
   735   2    173    172    171    203
   736   7    203    171    172    204
   737   1    171    172    173    168
   738   8    171    172    173    161
   739   2    168    173    172    204
   740   9    204    172    173    161
   741  10    177    178    174    170
   742  10    179    178    174    170
   743  10    177    178    174    181
   744  10    179    178    174    181
   745  10    177    178    174    192
   746  10    179    178    174    192
   747  10    182    181    174    170
   748  10    186    181    174    170
   749  10    182    181    174    178
   750  10    186    181    174    178
   751  10    182    181    174    192
   752  10    186    181    174    192
   753  10    187    192    174    170
   754  10    191    192    174    170
   755  10    187    192    174    178
   756  10    191    192    174    178
   757  10    187    192    174    181
   758  10    191    192    174    181
   759   1    180    175    176    177
   760   2    180    175    176    205
   761   3    177    176    175    469
   762   4    205    176    175    469
   763   1    176    175    180    179
   764   2    176    175    180    208
   765   3    179    180    175    469
   766   4    208    180    175    469
   767   5    176    175    469    470
   768   6    176    175    469    471
   769   6    176    175    469    472
   770   5    180    175    469    470
   771   6    180    175    469    471
   772   6    180    175    469    472
   773   1    175    176    177    178
   774   2    175    176    177    206
   775   2    178    177    176    205
   776   7    205    176    177    206
   777   8    176    177    178    174
   778   1    176    177    178    179
   779   9    206    177    178    174
   780   2    179    178    177    206
   781   1    177    178    179    180
   782   2    177    178    179    207
   783   8    180    179    178    174
   784   9    207    179    178    174
   785   1    178    179    180    175
   786   2    178    179    180    208
   787   2    175    180    179    207
   788   7    207    179    180    208
   789   8    183    182    181    174
   790   9    209    182    181    174
   791   1    186    181    182    183
   792   2    186    181    182    209
   793   8    185    186    181    174
   794   9    212    186    181    174
   795   1    182    181    186    185
   796   2    182    181    186    212
   797   1    181    182    183    184
   798   2    181    182    183    210
   799   2    184    183    182    209
   800   7    209    182    183    210
   801   1    182    183    184    185
   802   3    182    183    184    458
   803   2    185    184    183    210
   804   4    210    183    184    458
   805   1    183    184    185    186
   806   2    183    184    185    211
   807   3    186    185    184    458
   808   4    211    185    184    458
   809   5    183    184    458    457
   810   6    183    184    458   1001
   811   6    183    184    458    462
   812   5    185    184    458    457
   813   6    185    184    458   1001
   814   6    185    184    458    462
   815   1    184    185    186    181
   816   2    184    185    186    212
   817   2    181    186    185    211
   818   7    211    185    186    212
   819   1    192    187    188    189
   820   2    192    187    188    214
   821   2    189    188    187    213
   822   7    213    187    188    214
   823   1    188    187    192    191
   824   8    188    187    192    174
   825   2    191    192    187    213
   826   9    213    187    192    174
   827   1    187    188    189    190
   828   3    187    188    189    493
   829   2    190    189    188    214
   830   4    214    188    189    493
   831   1    188    189    190    191
   832   2    188    189    190    215
   833   3    191    190    189    493
   834   4    215    190    189    493
   835   5    188    189    493    494
   836   6    188    189    493    495
   837   6    188    189    493    496
   838   5    190    189    493    494
   839   6    190    189    493    495
   840   6    190    189    493    496
   841   1    189    190    191    192
   842   2    189    190    191    216
   843   2    192    191    190    215
   844   7    215    190    191    216
   845   1    190    191    192    187
   846   8    190    191    192    174
   847   2    187    192    191    216
   848   9    216    191    192    174
   849   1    222    217    218    219
   850   2    222    217    218    223
   851   3    219    218    217    440
   852   4    223    218    217    440
   853   1    218    217    222    221
   854   2    218    217    222    226
   855   3    221    222    217    440
   856   4    226    222    217    440
   857   5    218    217    440    439
   858   6    218    217    440    443
   859   6    218    217    440    444
   860   5    222    217    440    439
   861   6    222    217    440    443
   862   6    222    217    440    444
   863   1    217    218    219    220
   864   2    217    218    219    224
   865   2    220    219    218    223
   866   7    223    218    219    224
   867   1    218    219    220    221
   868   8    218    219    220    233
   869   2    221    220    219    224
   870   9    224    219    220    233
   871   1    219    220    221    222
   872   2    219    220    221    225
   873   8    222    221    220    233
   874   9    225    221    220    233
   875  10    219    220    233    228
   876  10    219    220    233    234
   877  10    219    220    233    245
   878  10    221    220    233    228
   879  10    221    220    233    234
   880  10    221    220    233    245
   881   1    220    221    222    217
   882   2    220    221    222    226
   883   2    217    222    221    225
   884   7    225    221    222    226
   885   1    232    227    228    229
   886   8    232    227    228    233
   887   2    229    228    227    265
   888   9    265    227    228    233
   889   1    228    227    232    231
   890   2    228    227    232    268
   891   2    231    232    227    265
   892   7    265    227    232    268
   893   1    227    228    229    230
   894   2    227    228    229    266
   895   8    230    229    228    233
   896   9    266    229    228    233
   897  10    227    228    233    220
   898  10    227    228    233    234
   899  10    227    228    233    245
   900  10    229    228    233    220
   901  10    229    228    233    234
   902  10    229    228    233    245
   903   1    228    229    230    231
   904   2    228    229    230    267
   905   2    231    230    229    266
   906   7    266    229    230    267
   907   1    229    230    231    232
   908   3    229    230    231    530
   909   2    232    231    230    267
   910   4    267    230    231    530
   911   1    230    231    232    227
   912   2    230    231    232    268
   913   3    227    232    231    530
   914   4    268    232    231    530
   915   5    230    231    530   1069
   916   6    230    231    530    533
   917   6    230    231    530    534
   918   5    232    231    530   1069
   919   6    232    231    530    533
   920   6    232    231    530    534
   921  10    235    234    233    220
   922  10    239    234    233    220
   923  10    235    234    233    228
   924  10    239    234    233    228
   925  10    235    234    233    245
   926  10    239    234    233    245
   927  10    244    245    233    220
   928  10    240    245    233    220
   929  10    244    245    233    228
   930  10    240    245    233    228
   931  10    244    245    233    234
   932  10    240    245    233    234
   933   8    776    235    234    233
   934   9    269    235    234    233
   935   1    239    234    235    776
   936   2    239    234    235    269
   937   8    238    239    234    233
   938   9    272    239    234    233
   939   1    235    234    239    238
   940   2    235    234    239    272
   941   1    234    235    776    237
   942   2    234    235    776    810
   943   2    237    776    235    269
   944   7    269    235    776    810
   945   1    777    236    775    774
   946   2    777    236    775    809
   947   2    774    775    236    270
   948   7    270    236    775    809
   949   1    775    236    777    778
   950   3    775    236    777    445
   951   2    778    777    236    270
   952   4    270    236    777    445
   953   1    238    237    776    235
   954   2    238    237    776    810
   955   3    235    776    237    985
   956   4    810    776    237    985
   957   1    776    237    238    239
   958   2    776    237    238    271
   959   3    239    238    237    985
   960   4    271    238    237    985
   961   5    776    237    985    986
   962   6    776    237    985    987
   963   6    776    237    985    988
   964   5    238    237    985    986
   965   6    238    237    985    987
   966   6    238    237    985    988
   967   1    237    238    239    234
   968   2    237    238    239    272
   969   2    234    239    238    271
   970   7    271    238    239    272
   971   1    245    240    241    242
   972   2    245    240    241    274
   973   2    242    241    240    273
   974   7    273    240    241    274
   975   8    241    240    245    233
   976   1    241    240    245    244
   977   9    273    240    245    233
   978   2    244    245    240    273
   979   1    240    241    242    243
   980   8    240    241    242    246
   981   2    243    242    241    274
   982   9    274    241    242    246
   983   1    241    242    243    244
   984   2    241    242    243    275
   985   8    244    243    242    246
   986   9    275    243    242    246
   987  10    241    242    246    790
   988  10    241    242    246    793
   989  10    241    242    246    264
   990  10    243    242    246    790
   991  10    243    242    246    793
   992  10    243    242    246    264
   993   1    242    243    244    245
   994   2    242    243    244    276
   995   2    245    244    243    275
   996   7    275    243    244    276
   997   8    243    244    245    233
   998   1    243    244    245    240
   999   9    276    244    245    233
  1000   2    240    245    244    276
  1001  10    249    790    246    242
  1002  10    791    790    246    242
  1003  10    249    790    246    793
  1004  10    791    790    246    793
  1005  10    249    790    246    264
  1006  10    791    790    246    264
  1007  10    794    793    246    242
  1008  10    798    793    246    242
  1009  10    794    793    246    790
  1010  10    798    793    246    790
  1011  10    794    793    246    264
  1012  10    798    793    246    264
  1013  10    263    264    246    242
  1014  10    799    264    246    242
  1015  10    263    264    246    790
  1016  10    799    264    246    790
  1017  10    263    264    246    793
  1018  10    799    264    246    793
  1019   1    252    247    248    789
  1020   2    252    247    248    817
  1021   3    789    248    247    470
  1022   4    817    248    247    470
  1023   1    248    247    252    251
  1024   2    248    247    252    280
  1025   3    251    252    247    470
  1026   4    280    252    247    470
  1027   5    248    247    470    469
  1028   6    248    247    470    473
  1029   6    248    247    470    474
  1030   5    252    247    470    469
  1031   6    252    247    470    473
  1032   6    252    247    470    474
  1033   1    247    248    789    250
  1034   2    247    248    789    818
  1035   2    250    789    248    817
  1036   7    817    248    789    818
  1037   1    790    249    788    787
  1038   2    790    249    788    277
  1039   2    787    788    249    278
  1040   7    278    249    788    277
  1041   8    788    249    790    246
  1042   1    788    249    790    791
  1043   9    278    249    790    246
  1044   2    791    790    249    278
  1045   8    248    789    250    786
  1046   9    818    789    250    786
  1047   1    251    250    789    248
  1048   2    251    250    789    818
  1049  10    789    250    786    782
  1050  10    789    250    786    253
  1051  10    789    250    786    804
  1052  10    251    250    786    782
  1053  10    251    250    786    253
  1054  10    251    250    786    804
  1055   1    789    250    251    252
  1056   2    789    250    251    279
  1057   8    252    251    250    786
  1058   9    279    251    250    786
  1059   1    250    251    252    247
  1060   2    250    251    252    280
  1061   2    247    252    251    279
  1062   7    279    251    252    280
  1063  10    254    253    786    782
  1064  10    254    253    786    250
  1065  10    254    253    786    804
  1066  10    258    253    786    782
  1067  10    258    253    786    250
  1068  10    258    253    786    804
  1069   8    255    254    253    786
  1070   9    821    254    253    786
  1071   1    258    253    254    255
  1072   2    258    253    254    821
  1073   8    257    258    253    786
  1074   9    284    258    253    786
  1075   1    254    253    258    257
  1076   2    254    253    258    284
  1077   1    253    254    255    256
  1078   2    253    254    255    282
  1079   2    256    255    254    821
  1080   7    821    254    255    282
  1081   1    254    255    256    257
  1082   3    254    255    256    488
  1083   2    257    256    255    282
  1084   4    282    255    256    488
  1085   1    255    256    257    258
  1086   2    255    256    257    283
  1087   3    258    257    256    488
  1088   4    283    257    256    488
  1089   5    255    256    488    487
  1090   6    255    256    488    491
  1091   6    255    256    488    492
  1092   5    257    256    488    487
  1093   6    257    256    488    491
  1094   6    257    256    488    492
  1095   1    256    257    258    253
  1096   2    256    257    258    284
  1097   2    253    258    257    283
  1098   7    283    257    258    284
  1099   1    804    259    800    801
  1100   2    804    259    800    286
  1101   2    801    800    259    285
  1102   7    285    259    800    286
  1103   1    800    259    804    803
  1104   8    800    259    804    786
  1105   2    803    804    259    285
  1106   9    285    259    804    786
  1107   1    261    260    799    264
  1108   2    261    260    799    825
  1109   2    264    799    260    826
  1110   7    826    260    799    825
  1111   1    799    260    261    262
  1112   3    799    260    261    451
  1113   2    262    261    260    826
  1114   4    826    260    261    451
  1115   1    260    261    262    263
  1116   2    260    261    262    287
  1117   3    263    262    261    451
  1118   4    287    262    261    451
  1119   5    260    261    451    452
  1120   6    260    261    451    453
  1121   6    260    261    451    454
  1122   5    262    261    451    452
  1123   6    262    261    451    453
  1124   6    262    261    451    454
  1125   1    261    262    263    264
  1126   2    261    262    263    288
  1127   2    264    263    262    287
  1128   7    287    262    263    288
  1129   8    262    263    264    246
  1130   1    262    263    264    799
  1131   9    288    263    264    246
  1132   2    799    264    263    288
  1133   1    263    264    799    260
  1134   2    263    264    799    825
  1135   8    260    799    264    246
  1136   9    825    799    264    246
  1137   1    294    289    290    291
  1138   2    294    289    290    295
  1139   3    291    290    289    482
  1140   4    295    290    289    482
  1141   1    290    289    294    293
  1142   2    290    289    294    298
  1143   3    293    294    289    482
  1144   4    298    294    289    482
  1145   5    290    289    482    481
  1146   6    290    289    482    485
  1147   6    290    289    482    486
  1148   5    294    289    482    481
  1149   6    294    289    482    485
  1150   6    294    289    482    486
  1151   1    289    290    291    292
  1152   2    289    290    291    296
  1153   2    292    291    290    295
  1154   7    295    290    291    296
  1155   1    290    291    292    293
  1156   8    290    291    292    305
  1157   2    293    292    291    296
  1158   9    296    291    292    305
  1159   1    291    292    293    294
  1160   2    291    292    293    297
  1161   8    294    293    292    305
  1162   9    297    293    292    305
  1163  10    291    292    305    300
  1164  10    291    292    305    306
  1165  10    291    292    305    317
  1166  10    293    292    305    300
  1167  10    293    292    305    306
  1168  10    293    292    305    317
  1169   1    292    293    294    289
  1170   2    292    293    294    298
  1171   2    289    294    293    297
  1172   7    297    293    294    298
  1173   1    304    299    300    301
  1174   8    304    299    300    305
  1175   2    301    300    299    337
  1176   9    337    299    300    305
  1177   1    300    299    304    303
  1178   2    300    299    304    340
  1179   2    303    304    299    337
  1180   7    337    299    304    340
  1181   1    299    300    301    302
  1182   2    299    300    301    338
  1183   8    302    301    300    305
  1184   9    338    301    300    305
  1185  10    299    300    305    292
  1186  10    299    300    305    306
  1187  10    299    300    305    317
  1188  10    301    300    305    292
  1189  10    301    300    305    306
  1190  10    301    300    305    317
  1191   1    300    301    302    303
  1192   2    300    301    302    339
  1193   2    303    302    301    338
  1194   7    338    301    302    339
  1195   1    301    302    303    304
  1196   3    301    302    303    452
  1197   2    304    303    302    339
  1198   4    339    302    303    452
  1199   1    302    303    304    299
  1200   2    302    303    304    340
  1201   3    299    304    303    452
  1202   4    340    304    303    452
  1203   5    302    303    452    451
  1204   6    302    303    452    455
  1205   6    302    303    452    456
  1206   5    304    303    452    451
  1207   6    304    303    452    455
  1208   6    304    303    452    456
  1209  10    307    306    305    292
  1210  10    311    306    305    292
  1211  10    307    306    305    300
  1212  10    311    306    305    300
  1213  10    307    306    305    317
  1214  10    311    306    305    317
  1215  10    316    317    305    292
  1216  10    312    317    305    292
  1217  10    316    317    305    300
  1218  10    312    317    305    300
  1219  10    316    317    305    306
  1220  10    312    317    305    306
  1221   8    308    307    306    305
  1222   9    341    307    306    305
  1223   1    311    306    307    308
  1224   2    311    306    307    341
  1225   8    310    311    306    305
  1226   9    344    311    306    305
  1227   1    307    306    311    310
  1228   2    307    306    311    344
  1229   1    306    307    308    309
  1230   2    306    307    308    342
  1231   2    309    308    307    341
  1232   7    341    307    308    342
  1233   1    307    308    309    310
  1234   3    307    308    309    475
  1235   2    310    309    308    342
  1236   4    342    308    309    475
  1237   1    308    309    310    311
  1238   2    308    309    310    343
  1239   3    311    310    309    475
  1240   4    343    310    309    475
  1241   5    308    309    475    476
  1242   6    308    309    475    477
  1243   6    308    309    475    478
  1244   5    310    309    475    476
  1245   6    310    309    475    477
  1246   6    310    309    475    478
  1247   1    309    310    311    306
  1248   2    309    310    311    344
  1249   2    306    311    310    343
  1250   7    343    310    311    344
  1251   1    317    312    313    314
  1252   2    317    312    313    346
  1253   2    314    313    312    345
  1254   7    345    312    313    346
  1255   1    313    312    317    316
  1256   8    313    312    317    305
  1257   2    316    317    312    345
  1258   9    345    312    317    305
  1259   1    312    313    314    315
  1260   8    312    313    314    318
  1261   2    315    314    313    346
  1262   9    346    313    314    318
  1263   1    313    314    315    316
  1264   2    313    314    315    347
  1265   8    316    315    314    318
  1266   9    347    315    314    318
  1267  10    313    314    318    322
  1268  10    313    314    318    325
  1269  10    313    314    318    336
  1270  10    315    314    318    322
  1271  10    315    314    318    325
  1272  10    315    314    318    336
  1273   1    314    315    316    317
  1274   2    314    315    316    348
  1275   2    317    316    315    347
  1276   7    347    315    316    348
  1277   8    315    316    317    305
  1278   1    315    316    317    312
  1279   9    348    316    317    305
  1280   2    312    317    316    348
  1281  10    321    322    318    314
  1282  10    323    322    318    314
  1283  10    321    322    318    325
  1284  10    323    322    318    325
  1285  10    321    322    318    336
  1286  10    323    322    318    336
  1287  10    326    325    318    314
  1288  10    330    325    318    314
  1289  10    326    325    318    322
  1290  10    330    325    318    322
  1291  10    326    325    318    336
  1292  10    330    325    318    336
  1293  10    335    336    318    314
  1294  10    331    336    318    314
  1295  10    335    336    318    322
  1296  10    331    336    318    322
  1297  10    335    336    318    325
  1298  10    331    336    318    325
  1299   1    324    319    320    321
  1300   2    324    319    320    349
  1301   3    321    320    319    433
  1302   4    349    320    319    433
  1303   1    320    319    324    323
  1304   2    320    319    324    352
  1305   3    323    324    319    433
  1306   4    352    324    319    433
  1307   5    320    319    433    434
  1308   6    320    319    433    435
  1309   6    320    319    433    436
  1310   5    324    319    433    434
  1311   6    324    319    433    435
  1312   6    324    319    433    436
  1313   1    319    320    321    322
  1314   2    319    320    321    350
  1315   2    322    321    320    349
  1316   7    349    320    321    350
  1317   8    320    321    322    318
  1318   1    320    321    322    323
  1319   9    350    321    322    318
  1320   2    323    322    321    350
  1321   8    324    323    322    318
  1322   9    351    323    322    318
  1323   1    321    322    323    324
  1324   2    321    322    323    351
  1325   1    322    323    324    319
  1326   2    322    323    324    352
  1327   2    319    324    323    351
  1328   7    351    323    324    352
  1329   8    327    326    325    318
  1330   9    353    326    325    318
  1331   1    330    325    326    327
  1332   2    330    325    326    353
  1333   8    329    330    325    318
  1334   9    356    330    325    318
  1335   1    326    325    330    329
  1336   2    326    325    330    356
  1337   1    325    326    327    328
  1338   2    325    326    327    354
  1339   2    328    327    326    353
  1340   7    353    326    327    354
  1341   1    326    327    328    329
  1342   3    326    327    328    457
  1343   2    329    328    327    354
  1344   4    354    327    328    457
  1345   1    327    328    329    330
  1346   2    327    328    329    355
  1347   3    330    329    328    457
  1348   4    355    329    328    457
  1349   5    327    328    457    458
  1350   6    327    328    457    459
  1351   6    327    328    457    460
  1352   5    329    328    457    458
  1353   6    329    328    457    459
  1354   6    329    328    457    460
  1355   1    328    329    330    325
  1356   2    328    329    330    356
  1357   2    325    330    329    355
  1358   7    355    329    330    356
  1359   1    336    331    332    333
  1360   2    336    331    332    358
  1361   2    333    332    331    357
  1362   7    357    331    332    358
  1363   1    332    331    336    335
  1364   8    332    331    336    318
  1365   2    335    336    331    357
  1366   9    357    331    336    318
  1367   1    331    332    333    334
  1368   3    331    332    333    523
  1369   2    334    333    332    358
  1370   4    358    332    333    523
  1371   1    332    333    334    335
  1372   2    332    333    334    359
  1373   3    335    334    333    523
  1374   4    359    334    333    523
  1375   5    332    333    523    524
  1376   6    332    333    523    525
  1377   6    332    333    523    526
  1378   5    334    333    523    524
  1379   6    334    333    523    525
  1380   6    334    333    523    526
  1381   1    333    334    335    336
  1382   2    333    334    335    360
  1383   2    336    335    334    359
  1384   7    359    334    335    360
  1385   8    334    335    336    318
  1386   1    334    335    336    331
  1387   9    360    335    336    318
  1388   2    331    336    335    360
  1389   1    366    361    362    363
  1390   2    366    361    362    367
  1391   3    363    362    361    446
  1392   4    367    362    361    446
  1393   1    362    361    366    365
  1394   2    362    361    366    370
  1395   3    365    366    361    446
  1396   4    370    366    361    446
  1397   5    362    361    446    445
  1398   6    362    361    446    449
  1399   6    362    361    446    450
  1400   5    366    361    446    445
  1401   6    366    361    446    449
  1402   6    366    361    446    450
  1403   1    361    362    363    364
  1404   2    361    362    363    368
  1405   2    364    363    362    367
  1406   7    367    362    363    368
  1407   1    362    363    364    365
  1408   8    362    363    364    377
  1409   2    365    364    363    368
  1410   9    368    363    364    377
  1411   1    363    364    365    366
  1412   2    363    364    365    369
  1413   8    366    365    364    377
  1414   9    369    365    364    377
  1415  10    363    364    377    372
  1416  10    363    364    377    378
  1417  10    363    364    377    389
  1418  10    365    364    377    372
  1419  10    365    364    377    378
  1420  10    365    364    377    389
  1421   1    364    365    366    361
  1422   2    364    365    366    370
  1423   2    361    366    365    369
  1424   7    369    365    366    370
  1425   1    376    371    372    373
  1426   8    376    371    372    377
  1427   2    373    372    371    409
  1428   9    409    371    372    377
  1429   1    372    371    376    375
  1430   2    372    371    376    412
  1431   2    375    376    371    409
  1432   7    409    371    376    412
  1433   1    371    372    373    374
  1434   2    371    372    373    410
  1435   8    374    373    372    377
  1436   9    410    373    372    377
  1437  10    371    372    377    364
  1438  10    371    372    377    378
  1439  10    371    372    377    389
  1440  10    373    372    377    364
  1441  10    373    372    377    378
  1442  10    373    372    377    389
  1443   1    372    373    374    375
  1444   2    372    373    374   1491
  1445   2    375    374    373    410
  1446   7    410    373    374   1491
  1447   1    373    374    375    376
  1448   3    373    374    375   1580
  1449   2    376    375    374   1491
  1450   4   1491    374    375   1580
  1451   1    374    375    376    371
  1452   2    374    375    376    412
  1453   3    371    376    375   1580
  1454   4    412    376    375   1580
  1455   5    374    375   1580   1579
  1456   6    374    375   1580   1583
  1457   6    374    375   1580    504
  1458   5    376    375   1580   1579
  1459   6    376    375   1580   1583
  1460   6    376    375   1580    504
  1461  10    379    378    377    364
  1462  10    383    378    377    364
  1463  10    379    378    377    372
  1464  10    383    378    377    372
  1465  10    379    378    377    389
  1466  10    383    378    377    389
  1467  10    388    389    377    364
  1468  10    384    389    377    364
  1469  10    388    389    377    372
  1470  10    384    389    377    372
  1471  10    388    389    377    378
  1472  10    384    389    377    378
  1473   8   1460    379    378    377
  1474   9   1493    379    378    377
  1475   1    383    378    379   1460
  1476   2    383    378    379   1493
  1477   8    382    383    378    377
  1478   9    416    383    378    377
  1479   1    379    378    383    382
  1480   2    379    378    383    416
  1481   1    378    379   1460    381
  1482   2    378    379   1460   1494
  1483   2    381   1460    379   1493
  1484   7   1493    379   1460   1494
  1485   1   1461    380   1459   1458
  1486   2   1461    380   1459    413
  1487   2   1458   1459    380    414
  1488   7    414    380   1459    413
  1489   1   1459    380   1461   1462
  1490   3   1459    380   1461    439
  1491   2   1462   1461    380    414
  1492   4    414    380   1461    439
  1493   1    382    381   1460    379
  1494   2    382    381   1460   1494
  1495   3    379   1460    381   1519
  1496   4   1494   1460    381   1519
  1497   1   1460    381    382    383
  1498   2   1460    381    382    415
  1499   3    383    382    381   1519
  1500   4    415    382    381   1519
  1501   5   1460    381   1519   1520
  1502   6   1460    381   1519   1521
  1503   6   1460    381   1519   1522
  1504   5    382    381   1519   1520
  1505   6    382    381   1519   1521
  1506   6    382    381   1519   1522
  1507   1    381    382    383    378
  1508   2    381    382    383    416
  1509   2    378    383    382    415
  1510   7    415    382    383    416
  1511   1    389    384    385    386
  1512   2    389    384    385    418
  1513   2    386    385    384    417
  1514   7    417    384    385    418
  1515   1    385    384    389    388
  1516   8    385    384    389    377
  1517   2    388    389    384    417
  1518   9    417    384    389    377
  1519   1    384    385    386    387
  1520   8    384    385    386    390
  1521   2    387    386    385    418
  1522   9    418    385    386    390
  1523   1    385    386    387    388
  1524   2    385    386    387    419
  1525   8    388    387    386    390
  1526   9    419    387    386    390
  1527  10    385    386    390    394
  1528  10    385    386    390    397
  1529  10    385    386    390    408
  1530  10    387    386    390    394
  1531  10    387    386    390    397
  1532  10    387    386    390    408
  1533   1    386    387    388    389
  1534   2    386    387    388    420
  1535   2    389    388    387    419
  1536   7    419    387    388    420
  1537   1    387    388    389    384
  1538   8    387    388    389    377
  1539   2    384    389    388    420
  1540   9    420    388    389    377
  1541  10    393    394    390    386
  1542  10   1475    394    390    386
  1543  10    393    394    390    397
  1544  10   1475    394    390    397
  1545  10    393    394    390    408
  1546  10   1475    394    390    408
  1547  10    398    397    390    386
  1548  10   1482    397    390    386
  1549  10    398    397    390    394
  1550  10   1482    397    390    394
  1551  10    398    397    390    408
  1552  10   1482    397    390    408
  1553  10    403    408    390    386
  1554  10    407    408    390    386
  1555  10    403    408    390    394
  1556  10    407    408    390    394
  1557  10    403    408    390    397
  1558  10    407    408    390    397
  1559   1    396    391   1472   1473
  1560   2    396    391   1472   1501
  1561   3   1473   1472    391    434
  1562   4   1501   1472    391    434
  1563   1   1472    391    396    395
  1564   2   1472    391    396    424
  1565   3    395    396    391    434
  1566   4    424    396    391    434
  1567   5   1472    391    434    433
  1568   6   1472    391    434    437
  1569   6   1472    391    434    438
  1570   5    396    391    434    433
  1571   6    396    391    434    437
  1572   6    396    391    434    438
  1573   1    393    392   1471   1476
  1574   3    393    392   1471   1514
  1575   2   1476   1471    392    421
  1576   4    421    392   1471   1514
  1577   1   1471    392    393    394
  1578   2   1471    392    393    422
  1579   2    394    393    392    421
  1580   7    421    392    393    422
  1581   8    392    393    394    390
  1582   1    392    393    394   1475
  1583   9    422    393    394    390
  1584   2   1475    394    393    422
  1585   8   1476   1475    394    390
  1586   9   1503   1475    394    390
  1587   1    393    394   1475   1476
  1588   2    393    394   1475   1503
  1589   8    396    395   1474   1470
  1590   1    396    395   1474   1473
  1591   9    423    395   1474   1470
  1592   2   1473   1474    395    423
  1593   1   1474    395    396    391
  1594   2   1474    395    396    424
  1595   2    391    396    395    423
  1596   7    423    395    396    424
  1597   8    399    398    397    390
  1598   9    425    398    397    390
  1599   1   1482    397    398    399
  1600   2   1482    397    398    425
  1601   8   1481   1482    397    390
  1602   9   1508   1482    397    390
  1603   1    398    397   1482   1481
  1604   2    398    397   1482   1508
  1605   1    397    398    399   1480
  1606   2    397    398    399    966
  1607   2   1480    399    398    425
  1608   7    425    398    399    966
  1609   1    398    399   1480   1481
  1610   3    398    399   1480   2138
  1611   2   1481   1480    399    966
  1612   4    966    399   1480   2138
  1613   1    401    400   1479   1478
  1614   2    401    400   1479   2046
  1615   3   1478   1479    400   1058
  1616   4   2046   1479    400   1058
  1617   1   1479    400    401    402
  1618   2   1479    400    401    427
  1619   3    402    401    400   1058
  1620   4    427    401    400   1058
  1621   5   1479    400   1058   1057
  1622   6   1479    400   1058    521
  1623   6   1479    400   1058   2142
  1624   5    401    400   1058   1057
  1625   6    401    400   1058    521
  1626   6    401    400   1058   2142
  1627   1    400    401    402   1477
  1628   2    400    401    402    428
  1629   2   1477    402    401    427
  1630   7    427    401    402    428
  1631   8    401    402   1477   1470
  1632   1    401    402   1477   1478
  1633   9    428    402   1477   1470
  1634   2   1478   1477    402    428
  1635   1    408    403    404    405
  1636   2    408    403    404    430
  1637   2    405    404    403    429
  1638   7    429    403    404    430
  1639   8    404    403    408    390
  1640   1    404    403    408    407
  1641   9    429    403    408    390
  1642   2    407    408    403    429
  1643   1    403    404    405    406
  1644   3    403    404    405    463
  1645   2    406    405    404    430
  1646   4    430    404    405    463
  1647   1    404    405    406    407
  1648   2    404    405    406    431
  1649   3    407    406    405    463
  1650   4    431    406    405    463
  1651   5    404    405    463    464
  1652   6    404    405    463    465
  1653   6    404    405    463    466
  1654   5    406    405    463    464
  1655   6    406    405    463    465
  1656   6    406    405    463    466
  1657   1    405    406    407    408
  1658   2    405    406    407    432
  1659   2    408    407    406    431
  1660   7    431    406    407    432
  1661   8    406    407    408    390
  1662   1    406    407    408    403
  1663   9    432    407    408    390
  1664   2    403    408    407    432
  1665  11    319    433    434    391
  1666  12    319    433    434    437
  1667  12    319    433    434    438
  1668  12    391    434    433    435
  1669  13    435    433    434    437
  1670  13    435    433    434    438
  1671  12    391    434    433    436
  1672  13    436    433    434    437
  1673  13    436    433    434    438
  1674   5    380   1461    439    440
  1675   5   1462   1461    439    440
  1676   6    380   1461    439    441
  1677   6   1462   1461    439    441
  1678   6    380   1461    439    442
  1679   6   1462   1461    439    442
  1680  11   1461    439    440    217
  1681  12   1461    439    440    443
  1682  12   1461    439    440    444
  1683  12    217    440    439    441
  1684  13    441    439    440    443
  1685  13    441    439    440    444
  1686  12    217    440    439    442
  1687  13    442    439    440    443
  1688  13    442    439    440    444
  1689   5    236    777    445    446
  1690   5    778    777    445    446
  1691   6    236    777    445    447
  1692   6    778    777    445    447
  1693   6    236    777    445    448
  1694   6    778    777    445    448
  1695  11    777    445    446    361
  1696  12    777    445    446    449
  1697  12    777    445    446    450
  1698  12    361    446    445    447
  1699  13    447    445    446    449
  1700  13    447    445    446    450
  1701  12    361    446    445    448
  1702  13    448    445    446    449
  1703  13    448    445    446    450
  1704  11    261    451    452    303
  1705  12    261    451    452    455
  1706  12    261    451    452    456
  1707  12    303    452    451    453
  1708  13    453    451    452    455
  1709  13    453    451    452    456
  1710  12    303    452    451    454
  1711  13    454    451    452    455
  1712  13    454    451    452    456
  1713  11    328    457    458    184
  1714  12    328    457    458   1001
  1715  12    328    457    458    462
  1716  12    184    458    457    459
  1717  13    459    457    458   1001
  1718  13    459    457    458    462
  1719  12    184    458    457    460
  1720  13    460    457    458   1001
  1721  13    460    457    458    462
  1722  11    405    463    464    159
  1723  12    405    463    464    467
  1724  12    405    463    464    468
  1725  12    159    464    463    465
  1726  13    465    463    464    467
  1727  13    465    463    464    468
  1728  12    159    464    463    466
  1729  13    466    463    464    467
  1730  13    466    463    464    468
  1731  11    175    469    470    247
  1732  12    175    469    470    473
  1733  12    175    469    470    474
  1734  12    247    470    469    471
  1735  13    471    469    470    473
  1736  13    471    469    470    474
  1737  12    247    470    469    472
  1738  13    472    469    470    473
  1739  13    472    469    470    474
  1740  11    309    475    476     73
  1741  12    309    475    476    479
  1742  12    309    475    476    480
  1743  12     73    476    475    477
  1744  13    477    475    476    479
  1745  13    477    475    476    480
  1746  12     73    476    475    478
  1747  13    478    475    476    479
  1748  13    478    475    476    480
  1749  11     93    481    482    289
  1750  12     93    481    482    485
  1751  12     93    481    482    486
  1752  12    289    482    481    483
  1753  13    483    481    482    485
  1754  13    483    481    482    486
  1755  12    289    482    481    484
  1756  13    484    481    482    485
  1757  13    484    481    482    486
  1758  11    112    487    488    256
  1759  12    112    487    488    491
  1760  12    112    487    488    492
  1761  12    256    488    487    489
  1762  13    489    487    488    491
  1763  13    489    487    488    492
  1764  12    256    488    487    490
  1765  13    490    487    488    491
  1766  13    490    487    488    492
  1767  11    189    493    494     87
  1768  12    189    493    494    497
  1769  12    189    493    494    498
  1770  12     87    494    493    495
  1771  13    495    493    494    497
  1772  13    495    493    494    498
  1773  12     87    494    493    496
  1774  13    496    493    494    497
  1775  13    496    493    494    498
  1776  11    117    499    500   1455
  1777  12    117    499    500    503
  1778  12    117    499    500   1584
  1779  12   1455    500    499    501
  1780  13    501    499    500    503
  1781  13    501    499    500   1584
  1782  12   1455    500    499    502
  1783  13    502    499    500    503
  1784  13    502    499    500   1584
  1785   5   1454   1455    500    499
  1786   5   1456   1455    500    499
  1787   6   1454   1455    500    503
  1788   6   1456   1455    500    503
  1789   6   1454   1455    500   1584
  1790   6   1456   1455    500   1584
  1791  11    165    505    506      1
  1792  12    165    505    506    509
  1793  12    165    505    506    510
  1794  12      1    506    505    507
  1795  13    507    505    506    509
  1796  13    507    505    506    510
  1797  12      1    506    505    508
  1798  13    508    505    506    509
  1799  13    508    505    506    510
  1800  11     21    511    512    145
  1801  12     21    511    512    515
  1802  12     21    511    512    516
  1803  12    145    512    511    513
  1804  13    513    511    512    515
  1805  13    513    511    512    516
  1806  12    145    512    511    514
  1807  13    514    511    512    515
  1808  13    514    511    512    516
  1809   5   1659   1120    517    518
  1810   5   1121   1120    517    518
  1811   6   1659   1120    517    519
  1812   6   1121   1120    517    519
  1813   6   1659   1120    517   1060
  1814   6   1121   1120    517   1060
  1815  11   1120    517    518    940
  1816  12   1120    517    518   1061
  1817  12   1120    517    518   1602
  1818  12    940    518    517    519
  1819  13    519    517    518   1061
  1820  13    519    517    518   1602
  1821  12    940    518    517   1060
  1822  13   1060    517    518   1061
  1823  13   1060    517    518   1602
  1824   5   2019    940    518    517
  1825   5    941    940    518    517
  1826   6   2019    940    518   1061
  1827   6    941    940    518   1061
  1828   6   2019    940    518   1602
  1829   6    941    940    518   1602
  1830  11    333    523    524     15
  1831  12    333    523    524    527
  1832  12    333    523    524    528
  1833  12     15    524    523    525
  1834  13    525    523    524    527
  1835  13    525    523    524    528
  1836  12     15    524    523    526
  1837  13    526    523    524    527
  1838  13    526    523    524    528
  1839  11     45    529   1070    771
  1840  12     45    529   1070   1073
  1841  12     45    529   1070   1074
  1842  12    771   1070    529    531
  1843  13    531    529   1070   1073
  1844  13    531    529   1070   1074
  1845  12    771   1070    529    532
  1846  13    532    529   1070   1073
  1847  13    532    529   1070   1074
  1848  11    231    530   1069    585
  1849  12    231    530   1069   1071
  1850  12    231    530   1069   1072
  1851  12    585   1069    530    533
  1852  13    533    530   1069   1071
  1853  13    533    530   1069   1072
  1854  12    585   1069    530    534
  1855  13    534    530   1069   1071
  1856  13    534    530   1069   1072
  1857  11     31    535    536    103
  1858  12     31    535    536    539
  1859  12     31    535    536    540
  1860  12    103    536    535    537
  1861  13    537    535    536    539
  1862  13    537    535    536    540
  1863  12    103    536    535    538
  1864  13    538    535    536    539
  1865  13    538    535    536    540
  1866   1    546    541    542    543
  1867   2    546    541    542    547
  1868   3    543    542    541   1046
  1869   4    547    542    541   1046
  1870   1    542    541    546    545
  1871   2    542    541    546    550
  1872   3    545    546    541   1046
  1873   4    550    546    541   1046
  1874   5    542    541   1046   1045
  1875   6    542    541   1046   1049
  1876   6    542    541   1046   1050
  1877   5    546    541   1046   1045
  1878   6    546    541   1046   1049
  1879   6    546    541   1046   1050
  1880   1    541    542    543    544
  1881   2    541    542    543    548
  1882   2    544    543    542    547
  1883   7    547    542    543    548
  1884   1    542    543    544    545
  1885   8    542    543    544     17
  1886   2    545    544    543    548
  1887   9    548    543    544     17
  1888   1    543    544    545    546
  1889   2    543    544    545      9
  1890   8    546    545    544     17
  1891   9      9    545    544     17
  1892   1    544    545    546    541
  1893   2    544    545    546    550
  1894   2    541    546    545      9
  1895   7      9    545    546    550
  1896   1    556    551    552    553
  1897   8    556    551    552    557
  1898   2    553    552    551    589
  1899   9    589    551    552    557
  1900   1    552    551    556    555
  1901   2    552    551    556    592
  1902   2    555    556    551    589
  1903   7    589    551    556    592
  1904   1    551    552    553    554
  1905   2    551    552    553    590
  1906   8    554    553    552    557
  1907   9    590    553    552    557
  1908  10    551    552    557      4
  1909  10    551    552    557    558
  1910  10    551    552    557    569
  1911  10    553    552    557      4
  1912  10    553    552    557    558
  1913  10    553    552    557    569
  1914   1    552    553    554    555
  1915   2    552    553    554    591
  1916   2    555    554    553    590
  1917   7    590    553    554    591
  1918   1    553    554    555    556
  1919   3    553    554    555   1064
  1920   2    556    555    554    591
  1921   4    591    554    555   1064
  1922   1    554    555    556    551
  1923   2    554    555    556    592
  1924   3    551    556    555   1064
  1925   4    592    556    555   1064
  1926   5    554    555   1064   1063
  1927   6    554    555   1064   1067
  1928   6    554    555   1064   1068
  1929   5    556    555   1064   1063
  1930   6    556    555   1064   1067
  1931   6    556    555   1064   1068
  1932  10     19    558    557      4
  1933  10    563    558    557      4
  1934  10     19    558    557    552
  1935  10    563    558    557    552
  1936  10     19    558    557    569
  1937  10    563    558    557    569
  1938  10     28    569    557      4
  1939  10    564    569    557      4
  1940  10     28    569    557    552
  1941  10    564    569    557    552
  1942  10     28    569    557    558
  1943  10    564    569    557    558
  1944   8    562    563    558    557
  1945   9    596    563    558    557
  1946   1     19    558    563    562
  1947   2     19    558    563    596
  1948   1     19    560    561    562
  1949   3     19    560    561   1051
  1950   2    562    561    560     54
  1951   4     54    560    561   1051
  1952   1    560    561    562    563
  1953   2    560    561    562    595
  1954   3    563    562    561   1051
  1955   4    595    562    561   1051
  1956   5    560    561   1051   1052
  1957   6    560    561   1051   1053
  1958   6    560    561   1051   1054
  1959   5    562    561   1051   1052
  1960   6    562    561   1051   1053
  1961   6    562    561   1051   1054
  1962   1    561    562    563    558
  1963   2    561    562    563    596
  1964   2    558    563    562    595
  1965   7    595    562    563    596
  1966   1    569    564    565    566
  1967   2    569    564    565    598
  1968   2    566    565    564    597
  1969   7    597    564    565    598
  1970   1    565    564    569     28
  1971   8    565    564    569    557
  1972   2     28    569    564    597
  1973   9    597    564    569    557
  1974   1    564    565    566     27
  1975   8    564    565    566    570
  1976   2     27    566    565    598
  1977   9    598    565    566    570
  1978  10    565    566    570    574
  1979  10    565    566    570    577
  1980  10    565    566    570    588
  1981  10     27    566    570    574
  1982  10     27    566    570    577
  1983  10     27    566    570    588
  1984   1     26    567    568     29
  1985   2     26    567    568    600
  1986   2     29    568    567    599
  1987   7    599    567    568    600
  1988  10    573    574    570    566
  1989  10    575    574    570    566
  1990  10    573    574    570    577
  1991  10    575    574    570    577
  1992  10    573    574    570    588
  1993  10    575    574    570    588
  1994  10     38    577    570    566
  1995  10    582    577    570    566
  1996  10     38    577    570    574
  1997  10    582    577    570    574
  1998  10     38    577    570    588
  1999  10    582    577    570    588
  2000  10    587    588    570    566
  2001  10    583    588    570    566
  2002  10    587    588    570    574
  2003  10    583    588    570    574
  2004  10    587    588    570    577
  2005  10    583    588    570    577
  2006   1    576    571    572    573
  2007   2    576    571    572    601
  2008   3    573    572    571   1075
  2009   4    601    572    571   1075
  2010   1    572    571    576    575
  2011   2    572    571    576    604
  2012   3    575    576    571   1075
  2013   4    604    576    571   1075
  2014   5    572    571   1075   1076
  2015   6    572    571   1075   1077
  2016   6    572    571   1075   1078
  2017   5    576    571   1075   1076
  2018   6    576    571   1075   1077
  2019   6    576    571   1075   1078
  2020   1    571    572    573    574
  2021   2    571    572    573    602
  2022   2    574    573    572    601
  2023   7    601    572    573    602
  2024   8    572    573    574    570
  2025   1    572    573    574    575
  2026   9    602    573    574    570
  2027   2    575    574    573    602
  2028   1    573    574    575    576
  2029   2    573    574    575    603
  2030   8    576    575    574    570
  2031   9    603    575    574    570
  2032   1    574    575    576    571
  2033   2    574    575    576    604
  2034   2    571    576    575    603
  2035   7    603    575    576    604
  2036   8    581    582    577    570
  2037   9    608    582    577    570
  2038   1     38    577    582    581
  2039   2     38    577    582    608
  2040   1     37    578    579     40
  2041   2     37    578    579   1686
  2042   2     40    579    578    605
  2043   7    605    578    579   1686
  2044   1     39    580    581    582
  2045   2     39    580    581    607
  2046   3    582    581    580   2137
  2047   4    607    581    580   2137
  2048   5     39    580   2137   2138
  2049   6     39    580   2137   2139
  2050   6     39    580   2137   1600
  2051   5    581    580   2137   2138
  2052   6    581    580   2137   2139
  2053   6    581    580   2137   1600
  2054   1    580    581    582    577
  2055   2    580    581    582    608
  2056   2    577    582    581    607
  2057   7    607    581    582    608
  2058   1     44    583    588    587
  2059   8     44    583    588    570
  2060   2    587    588    583    609
  2061   9    609    583    588    570
  2062   1     43    584    585    586
  2063   3     43    584    585   1069
  2064   2    586    585    584    610
  2065   4    610    584    585   1069
  2066   1    584    585    586     47
  2067   2    584    585    586    611
  2068   3     47    586    585   1069
  2069   4    611    586    585   1069
  2070   5    584    585   1069    530
  2071   6    584    585   1069   1071
  2072   6    584    585   1069   1072
  2073   5    586    585   1069    530
  2074   6    586    585   1069   1071
  2075   6    586    585   1069   1072
  2076   8     46    587    588    570
  2077   1     46    587    588    583
  2078   9    612    587    588    570
  2079   2    583    588    587    612
  2080   1    618    613    614    615
  2081   2    618    613    614    619
  2082   3    615    614    613   1016
  2083   4    619    614    613   1016
  2084   1    614    613    618   1697
  2085   2    614    613    618    622
  2086   3   1697    618    613   1016
  2087   4    622    618    613   1016
  2088   5    614    613   1016   1015
  2089   6    614    613   1016   1019
  2090   6    614    613   1016   1020
  2091   5    618    613   1016   1015
  2092   6    618    613   1016   1019
  2093   6    618    613   1016   1020
  2094   1    613    614    615   1696
  2095   2    613    614    615    620
  2096   2   1696    615    614    619
  2097   7    619    614    615    620
  2098   1    614    615   1696   1697
  2099   8    614    615   1696   1709
  2100   2   1697   1696    615    620
  2101   9    620    615   1696   1709
  2102   1    617    616   1695   1694
  2103   2    617    616   1695   1700
  2104   8   1694   1695    616    629
  2105   9   1700   1695    616    629
  2106   1   1695    616    617   1698
  2107   2   1695    616    617    621
  2108   8   1698    617    616    629
  2109   9    621    617    616    629
  2110  10   1695    616    629    624
  2111  10   1695    616    629    630
  2112  10   1695    616    629    641
  2113  10    617    616    629    624
  2114  10    617    616    629    630
  2115  10    617    616    629    641
  2116   1    616    617   1698   1693
  2117   2    616    617   1698   1702
  2118   2   1693   1698    617    621
  2119   7    621    617   1698   1702
  2120   1    613    618   1697   1696
  2121   2    613    618   1697   1701
  2122   2   1696   1697    618    622
  2123   7    622    618   1697   1701
  2124   1    628    623    624    625
  2125   8    628    623    624    629
  2126   2    625    624    623    661
  2127   9    661    623    624    629
  2128   1    624    623    628    627
  2129   2    624    623    628    664
  2130   2    627    628    623    661
  2131   7    661    623    628    664
  2132   1    623    624    625    626
  2133   2    623    624    625    662
  2134   8    626    625    624    629
  2135   9    662    625    624    629
  2136  10    623    624    629    616
  2137  10    623    624    629    630
  2138  10    623    624    629    641
  2139  10    625    624    629    616
  2140  10    625    624    629    630
  2141  10    625    624    629    641
  2142   1    624    625    626    627
  2143   2    624    625    626    663
  2144   2    627    626    625    662
  2145   7    662    625    626    663
  2146   1    625    626    627    628
  2147   3    625    626    627   1034
  2148   2    628    627    626    663
  2149   4    663    626    627   1034
  2150   1    626    627    628    623
  2151   2    626    627    628    664
  2152   3    623    628    627   1034
  2153   4    664    628    627   1034
  2154   5    626    627   1034   1033
  2155   6    626    627   1034   1037
  2156   6    626    627   1034   1038
  2157   5    628    627   1034   1033
  2158   6    628    627   1034   1037
  2159   6    628    627   1034   1038
  2160  10    631    630    629    616
  2161  10    635    630    629    616
  2162  10    631    630    629    624
  2163  10    635    630    629    624
  2164  10    631    630    629    641
  2165  10    635    630    629    641
  2166  10    636    641    629    616
  2167  10   1720    641    629    616
  2168  10    636    641    629    624
  2169  10   1720    641    629    624
  2170  10    636    641    629    630
  2171  10   1720    641    629    630
  2172   8    632    631    630    629
  2173   9    665    631    630    629
  2174   1    635    630    631    632
  2175   2    635    630    631    665
  2176   8    634    635    630    629
  2177   9    668    635    630    629
  2178   1    631    630    635    634
  2179   2    631    630    635    668
  2180   1    630    631    632    633
  2181   2    630    631    632    666
  2182   2    633    632    631    665
  2183   7    665    631    632    666
  2184   1    631    632    633    634
  2185   3    631    632    633   1021
  2186   2    634    633    632    666
  2187   4    666    632    633   1021
  2188   1    632    633    634    635
  2189   2    632    633    634    667
  2190   3    635    634    633   1021
  2191   4    667    634    633   1021
  2192   5    632    633   1021   1022
  2193   6    632    633   1021   1023
  2194   6    632    633   1021   1024
  2195   5    634    633   1021   1022
  2196   6    634    633   1021   1023
  2197   6    634    633   1021   1024
  2198   1    633    634    635    630
  2199   2    633    634    635    668
  2200   2    630    635    634    667
  2201   7    667    634    635    668
  2202   1    641    636    637   1718
  2203   2    641    636    637    670
  2204   2   1718    637    636    669
  2205   7    669    636    637    670
  2206   1    637    636    641   1720
  2207   8    637    636    641    629
  2208   2   1720    641    636    669
  2209   9    669    636    641    629
  2210   1    636    637   1718   1719
  2211   8    636    637   1718    642
  2212   2   1719   1718    637    670
  2213   9    670    637   1718    642
  2214   1    639    638   1717   1716
  2215   2    639    638   1717   1750
  2216   8   1716   1717    638   1722
  2217   9   1750   1717    638   1722
  2218   1   1717    638    639    640
  2219   2   1717    638    639    671
  2220   8    640    639    638   1722
  2221   9    671    639    638   1722
  2222  10   1717    638   1722   1726
  2223  10   1717    638   1722    649
  2224  10   1717    638   1722    660
  2225  10    639    638   1722   1726
  2226  10    639    638   1722    649
  2227  10    639    638   1722    660
  2228   1    638    639    640   1721
  2229   2    638    639    640    672
  2230   2   1721    640    639    671
  2231   7    671    639    640    672
  2232   1    639    640   1721   1716
  2233   8    639    640   1721   1709
  2234   2   1716   1721    640    672
  2235   9    672    640   1721   1709
  2236   1    636    641   1720   1719
  2237   2    636    641   1720   1752
  2238   8   1719   1720    641    629
  2239   9   1752   1720    641    629
  2240  10    637   1718    642    646
  2241  10   1719   1718    642    646
  2242  10    637   1718    642   1729
  2243  10   1719   1718    642   1729
  2244  10    637   1718    642   1740
  2245  10   1719   1718    642   1740
  2246  10    645    646    642   1718
  2247  10    647    646    642   1718
  2248  10    645    646    642   1729
  2249  10    647    646    642   1729
  2250  10    645    646    642   1740
  2251  10    647    646    642   1740
  2252  10   1730   1729    642   1718
  2253  10    654   1729    642   1718
  2254  10   1730   1729    642    646
  2255  10    654   1729    642    646
  2256  10   1730   1729    642   1740
  2257  10    654   1729    642   1740
  2258  10   1739   1740    642   1718
  2259  10    655   1740    642   1718
  2260  10   1739   1740    642    646
  2261  10    655   1740    642    646
  2262  10   1739   1740    642   1729
  2263  10    655   1740    642   1729
  2264   1    648    643    644    645
  2265   2    648    643    644    673
  2266   3    645    644    643   1076
  2267   4    673    644    643   1076
  2268   1    644    643    648    647
  2269   2    644    643    648    676
  2270   3    647    648    643   1076
  2271   4    676    648    643   1076
  2272   5    644    643   1076   1075
  2273   6    644    643   1076   1079
  2274   6    644    643   1076   1080
  2275   5    648    643   1076   1075
  2276   6    648    643   1076   1079
  2277   6    648    643   1076   1080
  2278   1    643    644    645    646
  2279   2    643    644    645    674
  2280   2    646    645    644    673
  2281   7    673    644    645    674
  2282   8    644    645    646    642
  2283   1    644    645    646    647
  2284   9    674    645    646    642
  2285   2    647    646    645    674
  2286   1    645    646    647    648
  2287   2    645    646    647    675
  2288   8    648    647    646    642
  2289   9    675    647    646    642
  2290   1    646    647    648    643
  2291   2    646    647    648    676
  2292   2    643    648    647    675
  2293   7    675    647    648    676
  2294  10    650    649   1722    638
  2295  10    650    649   1722   1726
  2296  10    650    649   1722    660
  2297  10   1734    649   1722    638
  2298  10   1734    649   1722   1726
  2299  10   1734    649   1722    660
  2300   8    111    650    649   1722
  2301   9    677    650    649   1722
  2302   1   1734    649    650    111
  2303   2   1734    649    650    677
  2304   8    113   1734    649   1722
  2305   9   1760   1734    649   1722
  2306   1    650    649   1734    113
  2307   2    650    649   1734   1760
  2308   1    110    651    652    653
  2309   3    110    651    652   1027
  2310   2    653    652    651    678
  2311   4    678    651    652   1027
  2312   1    651    652    653   1194
  2313   2    651    652    653   1759
  2314   3   1194    653    652   1027
  2315   4   1759    653    652   1027
  2316   5    651    652   1027   1028
  2317   6    651    652   1027   1029
  2318   6    651    652   1027   1030
  2319   5    653    652   1027   1028
  2320   6    653    652   1027   1029
  2321   6    653    652   1027   1030
  2322   1    652    653   1194    109
  2323   2    652    653   1194   1220
  2324   2    109   1194    653   1759
  2325   7   1759    653   1194   1220
  2326   1   1729    654   1193   1192
  2327   2   1729    654   1193    139
  2328   2   1192   1193    654    680
  2329   7    680    654   1193    139
  2330   8   1193    654   1729    642
  2331   1   1193    654   1729   1730
  2332   9    680    654   1729    642
  2333   2   1730   1729    654    680
  2334   1   1740    655   1736   1737
  2335   2   1740    655   1736    682
  2336   2   1737   1736    655    681
  2337   7    681    655   1736    682
  2338   1   1736    655   1740   1739
  2339   8   1736    655   1740    642
  2340   2   1739   1740    655    681
  2341   9    681    655   1740    642
  2342   1    657    656   1735    660
  2343   2    657    656   1735   1761
  2344   2    660   1735    656   1762
  2345   7   1762    656   1735   1761
  2346   1   1735    656    657    658
  2347   3   1735    656    657   1039
  2348   2    658    657    656   1762
  2349   4   1762    656    657   1039
  2350   1    656    657    658    659
  2351   2    656    657    658    683
  2352   3    659    658    657   1039
  2353   4    683    658    657   1039
  2354   5    656    657   1039   1040
  2355   6    656    657   1039   1041
  2356   6    656    657   1039   1042
  2357   5    658    657   1039   1040
  2358   6    658    657   1039   1041
  2359   6    658    657   1039   1042
  2360   1    657    658    659    660
  2361   2    657    658    659    684
  2362   2    660    659    658    683
  2363   7    683    658    659    684
  2364   1    658    659    660   1735
  2365   8    658    659    660   1722
  2366   2   1735    660    659    684
  2367   9    684    659    660   1722
  2368   1    659    660   1735    656
  2369   2    659    660   1735   1761
  2370   8    656   1735    660   1722
  2371   9   1761   1735    660   1722
  2372  10    659    660   1722    638
  2373  10    659    660   1722   1726
  2374  10    659    660   1722    649
  2375  10   1735    660   1722    638
  2376  10   1735    660   1722   1726
  2377  10   1735    660   1722    649
  2378   1    690    685    686    687
  2379   2    690    685    686    691
  2380   3    687    686    685   1052
  2381   4    691    686    685   1052
  2382   1    686    685    690    689
  2383   2    686    685    690    694
  2384   3    689    690    685   1052
  2385   4    694    690    685   1052
  2386   5    686    685   1052   1051
  2387   6    686    685   1052   1055
  2388   6    686    685   1052   1056
  2389   5    690    685   1052   1051
  2390   6    690    685   1052   1055
  2391   6    690    685   1052   1056
  2392   1    685    686    687    688
  2393   2    685    686    687    692
  2394   2    688    687    686    691
  2395   7    691    686    687    692
  2396   1    686    687    688    689
  2397   8    686    687    688    701
  2398   2    689    688    687    692
  2399   9    692    687    688    701
  2400   1    687    688    689    690
  2401   2    687    688    689    693
  2402   8    690    689    688    701
  2403   9    693    689    688    701
  2404  10    687    688    701    696
  2405  10    687    688    701    702
  2406  10    687    688    701    713
  2407  10    689    688    701    696
  2408  10    689    688    701    702
  2409  10    689    688    701    713
  2410   1    688    689    690    685
  2411   2    688    689    690    694
  2412   2    685    690    689    693
  2413   7    693    689    690    694
  2414   1    700    695    696    697
  2415   8    700    695    696    701
  2416   2    697    696    695    733
  2417   9    733    695    696    701
  2418   1    696    695    700    699
  2419   2    696    695    700    736
  2420   2    699    700    695    733
  2421   7    733    695    700    736
  2422   1    695    696    697    698
  2423   2    695    696    697    734
  2424   8    698    697    696    701
  2425   9    734    697    696    701
  2426  10    695    696    701    688
  2427  10    695    696    701    702
  2428  10    695    696    701    713
  2429  10    697    696    701    688
  2430  10    697    696    701    702
  2431  10    697    696    701    713
  2432   1    696    697    698    699
  2433   2    696    697    698    735
  2434   2    699    698    697    734
  2435   7    734    697    698    735
  2436   1    697    698    699    700
  2437   3    697    698    699   1004
  2438   2    700    699    698    735
  2439   4    735    698    699   1004
  2440   1    698    699    700    695
  2441   2    698    699    700    736
  2442   3    695    700    699   1004
  2443   4    736    700    699   1004
  2444   5    698    699   1004   1003
  2445   6    698    699   1004   1007
  2446   6    698    699   1004   1008
  2447   5    700    699   1004   1003
  2448   6    700    699   1004   1007
  2449   6    700    699   1004   1008
  2450  10    703    702    701    688
  2451  10    707    702    701    688
  2452  10    703    702    701    696
  2453  10    707    702    701    696
  2454  10    703    702    701    713
  2455  10    707    702    701    713
  2456  10    708    713    701    688
  2457  10    712    713    701    688
  2458  10    708    713    701    696
  2459  10    712    713    701    696
  2460  10    708    713    701    702
  2461  10    712    713    701    702
  2462   8    704    703    702    701
  2463   9    737    703    702    701
  2464   1    707    702    703    704
  2465   2    707    702    703    737
  2466   8    706    707    702    701
  2467   9    740    707    702    701
  2468   1    703    702    707    706
  2469   2    703    702    707    740
  2470   1    702    703    704    705
  2471   2    702    703    704    738
  2472   2    705    704    703    737
  2473   7    737    703    704    738
  2474   1    703    704    705    706
  2475   3    703    704    705   1045
  2476   2    706    705    704    738
  2477   4    738    704    705   1045
  2478   1    704    705    706    707
  2479   2    704    705    706    739
  2480   3    707    706    705   1045
  2481   4    739    706    705   1045
  2482   5    704    705   1045   1046
  2483   6    704    705   1045   1047
  2484   6    704    705   1045   1048
  2485   5    706    705   1045   1046
  2486   6    706    705   1045   1047
  2487   6    706    705   1045   1048
  2488   1    705    706    707    702
  2489   2    705    706    707    740
  2490   2    702    707    706    739
  2491   7    739    706    707    740
  2492   1    713    708    709    710
  2493   2    713    708    709    742
  2494   2    710    709    708    741
  2495   7    741    708    709    742
  2496   1    709    708    713    712
  2497   8    709    708    713    701
  2498   2    712    713    708    741
  2499   9    741    708    713    701
  2500   1    708    709    710    711
  2501   8    708    709    710    714
  2502   2    711    710    709    742
  2503   9    742    709    710    714
  2504   1    709    710    711    712
  2505   2    709    710    711    743
  2506   8    712    711    710    714
  2507   9    743    711    710    714
  2508  10    709    710    714    718
  2509  10    709    710    714    721
  2510  10    709    710    714    732
  2511  10    711    710    714    718
  2512  10    711    710    714    721
  2513  10    711    710    714    732
  2514   1    710    711    712    713
  2515   2    710    711    712    744
  2516   2    713    712    711    743
  2517   7    743    711    712    744
  2518   1    711    712    713    708
  2519   8    711    712    713    701
  2520   2    708    713    712    744
  2521   9    744    712    713    701
  2522  10    717    718    714    710
  2523  10    719    718    714    710
  2524  10    717    718    714    721
  2525  10    719    718    714    721
  2526  10    717    718    714    732
  2527  10    719    718    714    732
  2528  10    722    721    714    710
  2529  10    726    721    714    710
  2530  10    722    721    714    718
  2531  10    726    721    714    718
  2532  10    722    721    714    732
  2533  10    726    721    714    732
  2534  10    727    732    714    710
  2535  10    731    732    714    710
  2536  10    727    732    714    718
  2537  10    731    732    714    718
  2538  10    727    732    714    721
  2539  10    731    732    714    721
  2540   1    720    715    716    717
  2541   2    720    715    716    745
  2542   3    717    716    715   1009
  2543   4    745    716    715   1009
  2544   1    716    715    720    719
  2545   2    716    715    720    748
  2546   3    719    720    715   1009
  2547   4    748    720    715   1009
  2548   5    716    715   1009   1010
  2549   6    716    715   1009   1011
  2550   6    716    715   1009   1012
  2551   5    720    715   1009   1010
  2552   6    720    715   1009   1011
  2553   6    720    715   1009   1012
  2554   1    715    716    717    718
  2555   2    715    716    717    746
  2556   2    718    717    716    745
  2557   7    745    716    717    746
  2558   8    716    717    718    714
  2559   1    716    717    718    719
  2560   9    746    717    718    714
  2561   2    719    718    717    746
  2562   1    717    718    719    720
  2563   2    717    718    719    747
  2564   8    720    719    718    714
  2565   9    747    719    718    714
  2566   1    718    719    720    715
  2567   2    718    719    720    748
  2568   2    715    720    719    747
  2569   7    747    719    720    748
  2570   8    723    722    721    714
  2571   9    749    722    721    714
  2572   1    726    721    722    723
  2573   2    726    721    722    749
  2574   8    725    726    721    714
  2575   9    752    726    721    714
  2576   1    722    721    726    725
  2577   2    722    721    726    752
  2578   1    721    722    723    724
  2579   2    721    722    723    750
  2580   2    724    723    722    749
  2581   7    749    722    723    750
  2582   1    722    723    724    725
  2583   3    722    723    724    998
  2584   2    725    724    723    750
  2585   4    750    723    724    998
  2586   1    723    724    725    726
  2587   2    723    724    725    751
  2588   3    726    725    724    998
  2589   4    751    725    724    998
  2590   5    723    724    998    997
  2591   6    723    724    998    461
  2592   6    723    724    998   1002
  2593   5    725    724    998    997
  2594   6    725    724    998    461
  2595   6    725    724    998   1002
  2596   1    724    725    726    721
  2597   2    724    725    726    752
  2598   2    721    726    725    751
  2599   7    751    725    726    752
  2600   1    732    727    728    729
  2601   2    732    727    728    754
  2602   2    729    728    727    753
  2603   7    753    727    728    754
  2604   1    728    727    732    731
  2605   8    728    727    732    714
  2606   2    731    732    727    753
  2607   9    753    727    732    714
  2608   1    727    728    729    730
  2609   3    727    728    729   1033
  2610   2    730    729    728    754
  2611   4    754    728    729   1033
  2612   1    728    729    730    731
  2613   2    728    729    730    755
  2614   3    731    730    729   1033
  2615   4    755    730    729   1033
  2616   5    728    729   1033   1034
  2617   6    728    729   1033   1035
  2618   6    728    729   1033   1036
  2619   5    730    729   1033   1034
  2620   6    730    729   1033   1035
  2621   6    730    729   1033   1036
  2622   1    729    730    731    732
  2623   2    729    730    731    756
  2624   2    732    731    730    755
  2625   7    755    730    731    756
  2626   1    730    731    732    727
  2627   8    730    731    732    714
  2628   2    727    732    731    756
  2629   9    756    731    732    714
  2630   1    762    757    758    759
  2631   2    762    757    758    763
  2632   3    759    758    757    980
  2633   4    763    758    757    980
  2634   1    758    757    762    761
  2635   2    758    757    762    766
  2636   3    761    762    757    980
  2637   4    766    762    757    980
  2638   5    758    757    980    979
  2639   6    758    757    980    983
  2640   6    758    757    980    984
  2641   5    762    757    980    979
  2642   6    762    757    980    983
  2643   6    762    757    980    984
  2644   1    757    758    759    760
  2645   2    757    758    759    764
  2646   2    760    759    758    763
  2647   7    763    758    759    764
  2648   1    758    759    760    761
  2649   8    758    759    760    773
  2650   2    761    760    759    764
  2651   9    764    759    760    773
  2652   1    759    760    761    762
  2653   2    759    760    761    765
  2654   8    762    761    760    773
  2655   9    765    761    760    773
  2656  10    759    760    773    768
  2657  10    759    760    773    774
  2658  10    759    760    773    785
  2659  10    761    760    773    768
  2660  10    761    760    773    774
  2661  10    761    760    773    785
  2662   1    760    761    762    757
  2663   2    760    761    762    766
  2664   2    757    762    761    765
  2665   7    765    761    762    766
  2666   1    772    767    768    769
  2667   8    772    767    768    773
  2668   2    769    768    767    805
  2669   9    805    767    768    773
  2670   1    768    767    772    771
  2671   2    768    767    772    808
  2672   2    771    772    767    805
  2673   7    805    767    772    808
  2674   1    767    768    769    770
  2675   2    767    768    769    806
  2676   8    770    769    768    773
  2677   9    806    769    768    773
  2678  10    767    768    773    760
  2679  10    767    768    773    774
  2680  10    767    768    773    785
  2681  10    769    768    773    760
  2682  10    769    768    773    774
  2683  10    769    768    773    785
  2684   1    768    769    770    771
  2685   2    768    769    770    807
  2686   2    771    770    769    806
  2687   7    806    769    770    807
  2688   1    769    770    771    772
  2689   3    769    770    771   1070
  2690   2    772    771    770    807
  2691   4    807    770    771   1070
  2692   1    770    771    772    767
  2693   2    770    771    772    808
  2694   3    767    772    771   1070
  2695   4    808    772    771   1070
  2696   5    770    771   1070    529
  2697   6    770    771   1070   1073
  2698   6    770    771   1070   1074
  2699   5    772    771   1070    529
  2700   6    772    771   1070   1073
  2701   6    772    771   1070   1074
  2702  10    775    774    773    760
  2703  10    779    774    773    760
  2704  10    775    774    773    768
  2705  10    779    774    773    768
  2706  10    775    774    773    785
  2707  10    779    774    773    785
  2708  10    784    785    773    760
  2709  10    780    785    773    760
  2710  10    784    785    773    768
  2711  10    780    785    773    768
  2712  10    784    785    773    774
  2713  10    780    785    773    774
  2714   8    236    775    774    773
  2715   9    809    775    774    773
  2716   1    779    774    775    236
  2717   2    779    774    775    809
  2718   8    778    779    774    773
  2719   9    812    779    774    773
  2720   1    775    774    779    778
  2721   2    775    774    779    812
  2722   1    236    777    778    779
  2723   2    236    777    778    811
  2724   3    779    778    777    445
  2725   4    811    778    777    445
  2726   1    777    778    779    774
  2727   2    777    778    779    812
  2728   2    774    779    778    811
  2729   7    811    778    779    812
  2730   1    785    780    781    782
  2731   2    785    780    781    814
  2732   2    782    781    780    813
  2733   7    813    780    781    814
  2734   8    781    780    785    773
  2735   1    781    780    785    784
  2736   9    813    780    785    773
  2737   2    784    785    780    813
  2738   1    780    781    782    783
  2739   8    780    781    782    786
  2740   2    783    782    781    814
  2741   9    814    781    782    786
  2742   1    781    782    783    784
  2743   2    781    782    783    815
  2744   8    784    783    782    786
  2745   9    815    783    782    786
  2746  10    781    782    786    250
  2747  10    781    782    786    253
  2748  10    781    782    786    804
  2749  10    783    782    786    250
  2750  10    783    782    786    253
  2751  10    783    782    786    804
  2752   1    782    783    784    785
  2753   2    782    783    784    816
  2754   2    785    784    783    815
  2755   7    815    783    784    816
  2756   8    783    784    785    773
  2757   1    783    784    785    780
  2758   9    816    784    785    773
  2759   2    780    785    784    816
  2760  10    803    804    786    782
  2761  10    259    804    786    782
  2762  10    803    804    786    250
  2763  10    259    804    786    250
  2764  10    803    804    786    253
  2765  10    259    804    786    253
  2766   1    792    787    788    249
  2767   2    792    787    788    277
  2768   3    249    788    787   1010
  2769   4    277    788    787   1010
  2770   1    788    787    792    791
  2771   2    788    787    792    820
  2772   3    791    792    787   1010
  2773   4    820    792    787   1010
  2774   5    788    787   1010   1009
  2775   6    788    787   1010   1013
  2776   6    788    787   1010   1014
  2777   5    792    787   1010   1009
  2778   6    792    787   1010   1013
  2779   6    792    787   1010   1014
  2780   1    249    790    791    792
  2781   2    249    790    791    819
  2782   8    792    791    790    246
  2783   9    819    791    790    246
  2784   1    790    791    792    787
  2785   2    790    791    792    820
  2786   2    787    792    791    819
  2787   7    819    791    792    820
  2788   8    795    794    793    246
  2789   9    281    794    793    246
  2790   1    798    793    794    795
  2791   2    798    793    794    281
  2792   8    797    798    793    246
  2793   9    824    798    793    246
  2794   1    794    793    798    797
  2795   2    794    793    798    824
  2796   1    793    794    795    796
  2797   2    793    794    795    822
  2798   2    796    795    794    281
  2799   7    281    794    795    822
  2800   1    794    795    796    797
  2801   3    794    795    796   1028
  2802   2    797    796    795    822
  2803   4    822    795    796   1028
  2804   1    795    796    797    798
  2805   2    795    796    797    823
  2806   3    798    797    796   1028
  2807   4    823    797    796   1028
  2808   5    795    796   1028   1027
  2809   6    795    796   1028   1031
  2810   6    795    796   1028   1032
  2811   5    797    796   1028   1027
  2812   6    797    796   1028   1031
  2813   6    797    796   1028   1032
  2814   1    796    797    798    793
  2815   2    796    797    798    824
  2816   2    793    798    797    823
  2817   7    823    797    798    824
  2818   1    259    800    801    802
  2819   3    259    800    801    991
  2820   2    802    801    800    286
  2821   4    286    800    801    991
  2822   1    800    801    802    803
  2823   2    800    801    802    827
  2824   3    803    802    801    991
  2825   4    827    802    801    991
  2826   5    800    801    991    992
  2827   6    800    801    991    993
  2828   6    800    801    991    994
  2829   5    802    801    991    992
  2830   6    802    801    991    993
  2831   6    802    801    991    994
  2832   1    801    802    803    804
  2833   2    801    802    803    828
  2834   2    804    803    802    827
  2835   7    827    802    803    828
  2836   8    802    803    804    786
  2837   1    802    803    804    259
  2838   9    828    803    804    786
  2839   2    259    804    803    828
  2840   1    834    829    830    831
  2841   2    834    829    830    835
  2842   3    831    830    829   1022
  2843   4    835    830    829   1022
  2844   1    830    829    834    833
  2845   2    830    829    834    838
  2846   3    833    834    829   1022
  2847   4    838    834    829   1022
  2848   5    830    829   1022   1021
  2849   6    830    829   1022   1025
  2850   6    830    829   1022   1026
  2851   5    834    829   1022   1021
  2852   6    834    829   1022   1025
  2853   6    834    829   1022   1026
  2854   1    829    830    831    832
  2855   2    829    830    831    836
  2856   2    832    831    830    835
  2857   7    835    830    831    836
  2858   1    830    831    832    833
  2859   8    830    831    832    845
  2860   2    833    832    831    836
  2861   9    836    831    832    845
  2862   1    831    832    833    834
  2863   2    831    832    833    837
  2864   8    834    833    832    845
  2865   9    837    833    832    845
  2866  10    831    832    845    840
  2867  10    831    832    845    846
  2868  10    831    832    845    857
  2869  10    833    832    845    840
  2870  10    833    832    845    846
  2871  10    833    832    845    857
  2872   1    832    833    834    829
  2873   2    832    833    834    838
  2874   2    829    834    833    837
  2875   7    837    833    834    838
  2876   1    844    839    840    841
  2877   8    844    839    840    845
  2878   2    841    840    839    877
  2879   9    877    839    840    845
  2880   1    840    839    844    843
  2881   2    840    839    844    880
  2882   2    843    844    839    877
  2883   7    877    839    844    880
  2884   1    839    840    841    842
  2885   2    839    840    841    878
  2886   8    842    841    840    845
  2887   9    878    841    840    845
  2888  10    839    840    845    832
  2889  10    839    840    845    846
  2890  10    839    840    845    857
  2891  10    841    840    845    832
  2892  10    841    840    845    846
  2893  10    841    840    845    857
  2894   1    840    841    842    843
  2895   2    840    841    842    879
  2896   2    843    842    841    878
  2897   7    878    841    842    879
  2898   1    841    842    843    844
  2899   3    841    842    843    992
  2900   2    844    843    842    879
  2901   4    879    842    843    992
  2902   1    842    843    844    839
  2903   2    842    843    844    880
  2904   3    839    844    843    992
  2905   4    880    844    843    992
  2906   5    842    843    992    991
  2907   6    842    843    992    995
  2908   6    842    843    992    996
  2909   5    844    843    992    991
  2910   6    844    843    992    995
  2911   6    844    843    992    996
  2912  10    847    846    845    832
  2913  10    851    846    845    832
  2914  10    847    846    845    840
  2915  10    851    846    845    840
  2916  10    847    846    845    857
  2917  10    851    846    845    857
  2918  10    856    857    845    832
  2919  10    852    857    845    832
  2920  10    856    857    845    840
  2921  10    852    857    845    840
  2922  10    856    857    845    846
  2923  10    852    857    845    846
  2924   8    848    847    846    845
  2925   9    881    847    846    845
  2926   1    851    846    847    848
  2927   2    851    846    847    881
  2928   8    850    851    846    845
  2929   9    884    851    846    845
  2930   1    847    846    851    850
  2931   2    847    846    851    884
  2932   1    846    847    848    849
  2933   2    846    847    848    882
  2934   2    849    848    847    881
  2935   7    881    847    848    882
  2936   1    847    848    849    850
  2937   3    847    848    849   1015
  2938   2    850    849    848    882
  2939   4    882    848    849   1015
  2940   1    848    849    850    851
  2941   2    848    849    850    883
  2942   3    851    850    849   1015
  2943   4    883    850    849   1015
  2944   5    848    849   1015   1016
  2945   6    848    849   1015   1017
  2946   6    848    849   1015   1018
  2947   5    850    849   1015   1016
  2948   6    850    849   1015   1017
  2949   6    850    849   1015   1018
  2950   1    849    850    851    846
  2951   2    849    850    851    884
  2952   2    846    851    850    883
  2953   7    883    850    851    884
  2954   1    857    852    853    854
  2955   2    857    852    853    886
  2956   2    854    853    852    885
  2957   7    885    852    853    886
  2958   1    853    852    857    856
  2959   8    853    852    857    845
  2960   2    856    857    852    885
  2961   9    885    852    857    845
  2962   1    852    853    854    855
  2963   8    852    853    854    858
  2964   2    855    854    853    886
  2965   9    886    853    854    858
  2966   1    853    854    855    856
  2967   2    853    854    855    887
  2968   8    856    855    854    858
  2969   9    887    855    854    858
  2970  10    853    854    858    862
  2971  10    853    854    858    865
  2972  10    853    854    858    876
  2973  10    855    854    858    862
  2974  10    855    854    858    865
  2975  10    855    854    858    876
  2976   1    854    855    856    857
  2977   2    854    855    856    888
  2978   2    857    856    855    887
  2979   7    887    855    856    888
  2980   8    855    856    857    845
  2981   1    855    856    857    852
  2982   9    888    856    857    845
  2983   2    852    857    856    888
  2984  10    861    862    858    854
  2985  10    863    862    858    854
  2986  10    861    862    858    865
  2987  10    863    862    858    865
  2988  10    861    862    858    876
  2989  10    863    862    858    876
  2990  10    866    865    858    854
  2991  10    870    865    858    854
  2992  10    866    865    858    862
  2993  10    870    865    858    862
  2994  10    866    865    858    876
  2995  10    870    865    858    876
  2996  10    875    876    858    854
  2997  10    871    876    858    854
  2998  10    875    876    858    862
  2999  10    871    876    858    862
  3000  10    875    876    858    865
  3001  10    871    876    858    865
  3002   1    864    859    860    861
  3003   2    864    859    860    889
  3004   3    861    860    859    973
  3005   4    889    860    859    973
  3006   1    860    859    864    863
  3007   2    860    859    864    892
  3008   3    863    864    859    973
  3009   4    892    864    859    973
  3010   5    860    859    973    974
  3011   6    860    859    973    975
  3012   6    860    859    973    976
  3013   5    864    859    973    974
  3014   6    864    859    973    975
  3015   6    864    859    973    976
  3016   1    859    860    861    862
  3017   2    859    860    861    890
  3018   2    862    861    860    889
  3019   7    889    860    861    890
  3020   8    860    861    862    858
  3021   1    860    861    862    863
  3022   9    890    861    862    858
  3023   2    863    862    861    890
  3024   8    864    863    862    858
  3025   9    891    863    862    858
  3026   1    861    862    863    864
  3027   2    861    862    863    891
  3028   1    862    863    864    859
  3029   2    862    863    864    892
  3030   2    859    864    863    891
  3031   7    891    863    864    892
  3032   8    867    866    865    858
  3033   9    893    866    865    858
  3034   1    870    865    866    867
  3035   2    870    865    866    893
  3036   8    869    870    865    858
  3037   9    896    870    865    858
  3038   1    866    865    870    869
  3039   2    866    865    870    896
  3040   1    865    866    867    868
  3041   2    865    866    867    894
  3042   2    868    867    866    893
  3043   7    893    866    867    894
  3044   1    866    867    868    869
  3045   3    866    867    868    997
  3046   2    869    868    867    894
  3047   4    894    867    868    997
  3048   1    867    868    869    870
  3049   2    867    868    869    895
  3050   3    870    869    868    997
  3051   4    895    869    868    997
  3052   5    867    868    997    998
  3053   6    867    868    997    999
  3054   6    867    868    997   1000
  3055   5    869    868    997    998
  3056   6    869    868    997    999
  3057   6    869    868    997   1000
  3058   1    868    869    870    865
  3059   2    868    869    870    896
  3060   2    865    870    869    895
  3061   7    895    869    870    896
  3062   1    876    871    872    873
  3063   2    876    871    872    898
  3064   2    873    872    871    897
  3065   7    897    871    872    898
  3066   1    872    871    876    875
  3067   8    872    871    876    858
  3068   2    875    876    871    897
  3069   9    897    871    876    858
  3070   1    871    872    873    874
  3071   3    871    872    873   1063
  3072   2    874    873    872    898
  3073   4    898    872    873   1063
  3074   1    872    873    874    875
  3075   2    872    873    874    899
  3076   3    875    874    873   1063
  3077   4    899    874    873   1063
  3078   5    872    873   1063   1064
  3079   6    872    873   1063   1065
  3080   6    872    873   1063   1066
  3081   5    874    873   1063   1064
  3082   6    874    873   1063   1065
  3083   6    874    873   1063   1066
  3084   1    873    874    875    876
  3085   2    873    874    875    900
  3086   2    876    875    874    899
  3087   7    899    874    875    900
  3088   8    874    875    876    858
  3089   1    874    875    876    871
  3090   9    900    875    876    858
  3091   2    871    876    875    900
  3092   1    906    901    902    903
  3093   2    906    901    902    907
  3094   3    903    902    901    986
  3095   4    907    902    901    986
  3096   1    902    901    906    905
  3097   2    902    901    906    910
  3098   3    905    906    901    986
  3099   4    910    906    901    986
  3100   5    902    901    986    985
  3101   6    902    901    986    989
  3102   6    902    901    986    990
  3103   5    906    901    986    985
  3104   6    906    901    986    989
  3105   6    906    901    986    990
  3106   1    901    902    903    904
  3107   2    901    902    903    908
  3108   2    904    903    902    907
  3109   7    907    902    903    908
  3110   1    902    903    904    905
  3111   8    902    903    904    917
  3112   2    905    904    903    908
  3113   9    908    903    904    917
  3114   1    903    904    905    906
  3115   2    903    904    905    909
  3116   8    906    905    904    917
  3117   9    909    905    904    917
  3118  10    903    904    917    912
  3119  10    903    904    917    918
  3120  10    903    904    917    929
  3121  10    905    904    917    912
  3122  10    905    904    917    918
  3123  10    905    904    917    929
  3124   1    904    905    906    901
  3125   2    904    905    906    910
  3126   2    901    906    905    909
  3127   7    909    905    906    910
  3128   1    916    911    912    913
  3129   8    916    911    912    917
  3130   2    913    912    911    949
  3131   9    949    911    912    917
  3132   1    912    911    916    915
  3133   2    912    911    916    952
  3134   2    915    916    911    949
  3135   7    949    911    916    952
  3136   1    911    912    913    914
  3137   2    911    912    913    950
  3138   8    914    913    912    917
  3139   9    950    913    912    917
  3140  10    911    912    917    904
  3141  10    911    912    917    918
  3142  10    911    912    917    929
  3143  10    913    912    917    904
  3144  10    913    912    917    918
  3145  10    913    912    917    929
  3146   1    912    913    914    915
  3147   2    912    913    914   2031
  3148   2    915    914    913    950
  3149   7    950    913    914   2031
  3150   1    913    914    915    916
  3151   3    913    914    915   2120
  3152   2    916    915    914   2031
  3153   4   2031    914    915   2120
  3154   1    914    915    916    911
  3155   2    914    915    916    952
  3156   3    911    916    915   2120
  3157   4    952    916    915   2120
  3158   5    914    915   2120   2119
  3159   6    914    915   2120   2123
  3160   6    914    915   2120   1044
  3161   5    916    915   2120   2119
  3162   6    916    915   2120   2123
  3163   6    916    915   2120   1044
  3164  10    919    918    917    904
  3165  10    923    918    917    904
  3166  10    919    918    917    912
  3167  10    923    918    917    912
  3168  10    919    918    917    929
  3169  10    923    918    917    929
  3170  10    928    929    917    904
  3171  10    924    929    917    904
  3172  10    928    929    917    912
  3173  10    924    929    917    912
  3174  10    928    929    917    918
  3175  10    924    929    917    918
  3176   8   2000    919    918    917
  3177   9   2033    919    918    917
  3178   1    923    918    919   2000
  3179   2    923    918    919   2033
  3180   8    922    923    918    917
  3181   9    956    923    918    917
  3182   1    919    918    923    922
  3183   2    919    918    923    956
  3184   1    918    919   2000    921
  3185   2    918    919   2000   2034
  3186   2    921   2000    919   2033
  3187   7   2033    919   2000   2034
  3188   1   2001    920   1999   1998
  3189   2   2001    920   1999    953
  3190   2   1998   1999    920    954
  3191   7    954    920   1999    953
  3192   1   1999    920   2001   2002
  3193   3   1999    920   2001    979
  3194   2   2002   2001    920    954
  3195   4    954    920   2001    979
  3196   1    922    921   2000    919
  3197   2    922    921   2000   2034
  3198   3    919   2000    921   2059
  3199   4   2034   2000    921   2059
  3200   1   2000    921    922    923
  3201   2   2000    921    922    955
  3202   3    923    922    921   2059
  3203   4    955    922    921   2059
  3204   5   2000    921   2059   2060
  3205   6   2000    921   2059   2061
  3206   6   2000    921   2059   2062
  3207   5    922    921   2059   2060
  3208   6    922    921   2059   2061
  3209   6    922    921   2059   2062
  3210   1    921    922    923    918
  3211   2    921    922    923    956
  3212   2    918    923    922    955
  3213   7    955    922    923    956
  3214   1    929    924    925    926
  3215   2    929    924    925    958
  3216   2    926    925    924    957
  3217   7    957    924    925    958
  3218   1    925    924    929    928
  3219   8    925    924    929    917
  3220   2    928    929    924    957
  3221   9    957    924    929    917
  3222   1    924    925    926    927
  3223   8    924    925    926    930
  3224   2    927    926    925    958
  3225   9    958    925    926    930
  3226   1    925    926    927    928
  3227   2    925    926    927    959
  3228   8    928    927    926    930
  3229   9    959    927    926    930
  3230  10    925    926    930    934
  3231  10    925    926    930    937
  3232  10    925    926    930    948
  3233  10    927    926    930    934
  3234  10    927    926    930    937
  3235  10    927    926    930    948
  3236   1    926    927    928    929
  3237   2    926    927    928    960
  3238   2    929    928    927    959
  3239   7    959    927    928    960
  3240   1    927    928    929    924
  3241   8    927    928    929    917
  3242   2    924    929    928    960
  3243   9    960    928    929    917
  3244  10    933    934    930    926
  3245  10   2015    934    930    926
  3246  10    933    934    930    937
  3247  10   2015    934    930    937
  3248  10    933    934    930    948
  3249  10   2015    934    930    948
  3250  10    938    937    930    926
  3251  10   2022    937    930    926
  3252  10    938    937    930    934
  3253  10   2022    937    930    934
  3254  10    938    937    930    948
  3255  10   2022    937    930    948
  3256  10    943    948    930    926
  3257  10    947    948    930    926
  3258  10    943    948    930    934
  3259  10    947    948    930    934
  3260  10    943    948    930    937
  3261  10    947    948    930    937
  3262   1    936    931   2012   2013
  3263   2    936    931   2012   2041
  3264   3   2013   2012    931    974
  3265   4   2041   2012    931    974
  3266   1   2012    931    936    935
  3267   2   2012    931    936    964
  3268   3    935    936    931    974
  3269   4    964    936    931    974
  3270   5   2012    931    974    973
  3271   6   2012    931    974    977
  3272   6   2012    931    974    978
  3273   5    936    931    974    973
  3274   6    936    931    974    977
  3275   6    936    931    974    978
  3276   1    933    932   2011   2016
  3277   3    933    932   2011   2054
  3278   2   2016   2011    932    961
  3279   4    961    932   2011   2054
  3280   1   2011    932    933    934
  3281   2   2011    932    933    962
  3282   2    934    933    932    961
  3283   7    961    932    933    962
  3284   8    932    933    934    930
  3285   1    932    933    934   2015
  3286   9    962    933    934    930
  3287   2   2015    934    933    962
  3288   8   2016   2015    934    930
  3289   9   2043   2015    934    930
  3290   1    933    934   2015   2016
  3291   2    933    934   2015   2043
  3292   8    936    935   2014   2010
  3293   1    936    935   2014   2013
  3294   9    963    935   2014   2010
  3295   2   2013   2014    935    963
  3296   1   2014    935    936    931
  3297   2   2014    935    936    964
  3298   2    931    936    935    963
  3299   7    963    935    936    964
  3300   8    939    938    937    930
  3301   9    965    938    937    930
  3302   1   2022    937    938    939
  3303   2   2022    937    938    965
  3304   8   2021   2022    937    930
  3305   9   2048   2022    937    930
  3306   1    938    937   2022   2021
  3307   2    938    937   2022   2048
  3308   1    937    938    939   2020
  3309   2    937    938    939    426
  3310   2   2020    939    938    965
  3311   7    965    938    939    426
  3312   1    938    939   2020   2021
  3313   3    938    939   2020   1598
  3314   2   2021   2020    939    426
  3315   4    426    939   2020   1598
  3316   1    941    940   2019   2018
  3317   2    941    940   2019   1506
  3318   3   2018   2019    940    518
  3319   4   1506   2019    940    518
  3320   1   2019    940    941    942
  3321   2   2019    940    941    967
  3322   3    942    941    940    518
  3323   4    967    941    940    518
  3324   1    940    941    942   2017
  3325   2    940    941    942    968
  3326   2   2017    942    941    967
  3327   7    967    941    942    968
  3328   8    941    942   2017   2010
  3329   1    941    942   2017   2018
  3330   9    968    942   2017   2010
  3331   2   2018   2017    942    968
  3332   1    948    943    944    945
  3333   2    948    943    944    970
  3334   2    945    944    943    969
  3335   7    969    943    944    970
  3336   8    944    943    948    930
  3337   1    944    943    948    947
  3338   9    969    943    948    930
  3339   2    947    948    943    969
  3340   1    943    944    945    946
  3341   3    943    944    945   1003
  3342   2    946    945    944    970
  3343   4    970    944    945   1003
  3344   1    944    945    946    947
  3345   2    944    945    946    971
  3346   3    947    946    945   1003
  3347   4    971    946    945   1003
  3348   5    944    945   1003   1004
  3349   6    944    945   1003   1005
  3350   6    944    945   1003   1006
  3351   5    946    945   1003   1004
  3352   6    946    945   1003   1005
  3353   6    946    945   1003   1006
  3354   1    945    946    947    948
  3355   2    945    946    947    972
  3356   2    948    947    946    971
  3357   7    971    946    947    972
  3358   8    946    947    948    930
  3359   1    946    947    948    943
  3360   9    972    947    948    930
  3361   2    943    948    947    972
  3362  11    859    973    974    931
  3363  12    859    973    974    977
  3364  12    859    973    974    978
  3365  12    931    974    973    975
  3366  13    975    973    974    977
  3367  13    975    973    974    978
  3368  12    931    974    973    976
  3369  13    976    973    974    977
  3370  13    976    973    974    978
  3371   5    920   2001    979    980
  3372   5   2002   2001    979    980
  3373   6    920   2001    979    981
  3374   6   2002   2001    979    981
  3375   6    920   2001    979    982
  3376   6   2002   2001    979    982
  3377  11   2001    979    980    757
  3378  12   2001    979    980    983
  3379  12   2001    979    980    984
  3380  12    757    980    979    981
  3381  13    981    979    980    983
  3382  13    981    979    980    984
  3383  12    757    980    979    982
  3384  13    982    979    980    983
  3385  13    982    979    980    984
  3386  11    237    985    986    901
  3387  12    237    985    986    989
  3388  12    237    985    986    990
  3389  12    901    986    985    987
  3390  13    987    985    986    989
  3391  13    987    985    986    990
  3392  12    901    986    985    988
  3393  13    988    985    986    989
  3394  13    988    985    986    990
  3395  11    801    991    992    843
  3396  12    801    991    992    995
  3397  12    801    991    992    996
  3398  12    843    992    991    993
  3399  13    993    991    992    995
  3400  13    993    991    992    996
  3401  12    843    992    991    994
  3402  13    994    991    992    995
  3403  13    994    991    992    996
  3404  11    868    997    998    724
  3405  12    868    997    998    461
  3406  12    868    997    998   1002
  3407  12    724    998    997    999
  3408  13    999    997    998    461
  3409  13    999    997    998   1002
  3410  12    724    998    997   1000
  3411  13   1000    997    998    461
  3412  13   1000    997    998   1002
  3413  11    945   1003   1004    699
  3414  12    945   1003   1004   1007
  3415  12    945   1003   1004   1008
  3416  12    699   1004   1003   1005
  3417  13   1005   1003   1004   1007
  3418  13   1005   1003   1004   1008
  3419  12    699   1004   1003   1006
  3420  13   1006   1003   1004   1007
  3421  13   1006   1003   1004   1008
  3422  11    715   1009   1010    787
  3423  12    715   1009   1010   1013
  3424  12    715   1009   1010   1014
  3425  12    787   1010   1009   1011
  3426  13   1011   1009   1010   1013
  3427  13   1011   1009   1010   1014
  3428  12    787   1010   1009   1012
  3429  13   1012   1009   1010   1013
  3430  13   1012   1009   1010   1014
  3431  11    849   1015   1016    613
  3432  12    849   1015   1016   1019
  3433  12    849   1015   1016   1020
  3434  12    613   1016   1015   1017
  3435  13   1017   1015   1016   1019
  3436  13   1017   1015   1016   1020
  3437  12    613   1016   1015   1018
  3438  13   1018   1015   1016   1019
  3439  13   1018   1015   1016   1020
  3440  11    633   1021   1022    829
  3441  12    633   1021   1022   1025
  3442  12    633   1021   1022   1026
  3443  12    829   1022   1021   1023
  3444  13   1023   1021   1022   1025
  3445  13   1023   1021   1022   1026
  3446  12    829   1022   1021   1024
  3447  13   1024   1021   1022   1025
  3448  13   1024   1021   1022   1026
  3449  11    652   1027   1028    796
  3450  12    652   1027   1028   1031
  3451  12    652   1027   1028   1032
  3452  12    796   1028   1027   1029
  3453  13   1029   1027   1028   1031
  3454  13   1029   1027   1028   1032
  3455  12    796   1028   1027   1030
  3456  13   1030   1027   1028   1031
  3457  13   1030   1027   1028   1032
  3458  11    729   1033   1034    627
  3459  12    729   1033   1034   1037
  3460  12    729   1033   1034   1038
  3461  12    627   1034   1033   1035
  3462  13   1035   1033   1034   1037
  3463  13   1035   1033   1034   1038
  3464  12    627   1034   1033   1036
  3465  13   1036   1033   1034   1037
  3466  13   1036   1033   1034   1038
  3467  11    657   1039   1040   1995
  3468  12    657   1039   1040   1043
  3469  12    657   1039   1040   2124
  3470  12   1995   1040   1039   1041
  3471  13   1041   1039   1040   1043
  3472  13   1041   1039   1040   2124
  3473  12   1995   1040   1039   1042
  3474  13   1042   1039   1040   1043
  3475  13   1042   1039   1040   2124
  3476   5   1994   1995   1040   1039
  3477   5   1996   1995   1040   1039
  3478   6   1994   1995   1040   1043
  3479   6   1996   1995   1040   1043
  3480   6   1994   1995   1040   2124
  3481   6   1996   1995   1040   2124
  3482  11    705   1045   1046    541
  3483  12    705   1045   1046   1049
  3484  12    705   1045   1046   1050
  3485  12    541   1046   1045   1047
  3486  13   1047   1045   1046   1049
  3487  13   1047   1045   1046   1050
  3488  12    541   1046   1045   1048
  3489  13   1048   1045   1046   1049
  3490  13   1048   1045   1046   1050
  3491  11    561   1051   1052    685
  3492  12    561   1051   1052   1055
  3493  12    561   1051   1052   1056
  3494  12    685   1052   1051   1053
  3495  13   1053   1051   1052   1055
  3496  13   1053   1051   1052   1056
  3497  12    685   1052   1051   1054
  3498  13   1054   1051   1052   1055
  3499  13   1054   1051   1052   1056
  3500   5   1119   1660   1057   1058
  3501   5   1661   1660   1057   1058
  3502   6   1119   1660   1057   1059
  3503   6   1661   1660   1057   1059
  3504   6   1119   1660   1057    520
  3505   6   1661   1660   1057    520
  3506  11   1660   1057   1058    400
  3507  12   1660   1057   1058    521
  3508  12   1660   1057   1058   2142
  3509  12    400   1058   1057   1059
  3510  13   1059   1057   1058    521
  3511  13   1059   1057   1058   2142
  3512  12    400   1058   1057    520
  3513  13    520   1057   1058    521
  3514  13    520   1057   1058   2142
  3515  11    873   1063   1064    555
  3516  12    873   1063   1064   1067
  3517  12    873   1063   1064   1068
  3518  12    555   1064   1063   1065
  3519  13   1065   1063   1064   1067
  3520  13   1065   1063   1064   1068
  3521  12    555   1064   1063   1066
  3522  13   1066   1063   1064   1067
  3523  13   1066   1063   1064   1068
  3524  11    571   1075   1076    643
  3525  12    571   1075   1076   1079
  3526  12    571   1075   1076   1080
  3527  12    643   1076   1075   1077
  3528  13   1077   1075   1076   1079
  3529  13   1077   1075   1076   1080
  3530  12    643   1076   1075   1078
  3531  13   1078   1075   1076   1079
  3532  13   1078   1075   1076   1080
  3533   1   1086   1081   1082   1083
  3534   2   1086   1081   1082   1087
  3535   3   1083   1082   1081   1586
  3536   4   1087   1082   1081   1586
  3537   1   1082   1081   1086   1085
  3538   2   1082   1081   1086   1090
  3539   3   1085   1086   1081   1586
  3540   4   1090   1086   1081   1586
  3541   5   1082   1081   1586   1585
  3542   6   1082   1081   1586   1589
  3543   6   1082   1081   1586   1590
  3544   5   1086   1081   1586   1585
  3545   6   1086   1081   1586   1589
  3546   6   1086   1081   1586   1590
  3547   1   1081   1082   1083   1084
  3548   2   1081   1082   1083   1088
  3549   2   1084   1083   1082   1087
  3550   7   1087   1082   1083   1088
  3551   1   1082   1083   1084   1085
  3552   8   1082   1083   1084   1637
  3553   2   1085   1084   1083   1088
  3554   9   1088   1083   1084   1637
  3555   1   1083   1084   1085   1086
  3556   2   1083   1084   1085   1629
  3557   8   1086   1085   1084   1637
  3558   9   1629   1085   1084   1637
  3559  10   1083   1084   1637   1632
  3560  10   1083   1084   1637   1638
  3561  10   1083   1084   1637   1649
  3562  10   1085   1084   1637   1632
  3563  10   1085   1084   1637   1638
  3564  10   1085   1084   1637   1649
  3565   1   1084   1085   1086   1081
  3566   2   1084   1085   1086   1090
  3567   2   1081   1086   1085   1629
  3568   7   1629   1085   1086   1090
  3569   1   1096   1091   1092   1093
  3570   8   1096   1091   1092   1097
  3571   2   1093   1092   1091   1129
  3572   9   1129   1091   1092   1097
  3573   1   1092   1091   1096   1095
  3574   2   1092   1091   1096   1132
  3575   2   1095   1096   1091   1129
  3576   7   1129   1091   1096   1132
  3577   1   1091   1092   1093   1094
  3578   2   1091   1092   1093   1130
  3579   8   1094   1093   1092   1097
  3580   9   1130   1093   1092   1097
  3581  10   1091   1092   1097   1624
  3582  10   1091   1092   1097   1098
  3583  10   1091   1092   1097   1109
  3584  10   1093   1092   1097   1624
  3585  10   1093   1092   1097   1098
  3586  10   1093   1092   1097   1109
  3587   1   1092   1093   1094   1095
  3588   2   1092   1093   1094   1131
  3589   2   1095   1094   1093   1130
  3590   7   1130   1093   1094   1131
  3591   1   1093   1094   1095   1096
  3592   3   1093   1094   1095   1604
  3593   2   1096   1095   1094   1131
  3594   4   1131   1094   1095   1604
  3595   1   1094   1095   1096   1091
  3596   2   1094   1095   1096   1132
  3597   3   1091   1096   1095   1604
  3598   4   1132   1096   1095   1604
  3599   5   1094   1095   1604   1603
  3600   6   1094   1095   1604   1607
  3601   6   1094   1095   1604   1608
  3602   5   1096   1095   1604   1603
  3603   6   1096   1095   1604   1607
  3604   6   1096   1095   1604   1608
  3605  10   1623   1624   1097   1092
  3606  10   1625   1624   1097   1092
  3607  10   1623   1624   1097   1098
  3608  10   1625   1624   1097   1098
  3609  10   1623   1624   1097   1109
  3610  10   1625   1624   1097   1109
  3611  10   1639   1098   1097   1624
  3612  10   1103   1098   1097   1624
  3613  10   1639   1098   1097   1092
  3614  10   1103   1098   1097   1092
  3615  10   1639   1098   1097   1109
  3616  10   1103   1098   1097   1109
  3617  10   1648   1109   1097   1624
  3618  10   1104   1109   1097   1624
  3619  10   1648   1109   1097   1092
  3620  10   1104   1109   1097   1092
  3621  10   1648   1109   1097   1098
  3622  10   1104   1109   1097   1098
  3623   8   1100   1639   1098   1097
  3624   9   1673   1639   1098   1097
  3625   1   1103   1098   1639   1100
  3626   2   1103   1098   1639   1673
  3627   8   1102   1103   1098   1097
  3628   9   1136   1103   1098   1097
  3629   1   1639   1098   1103   1102
  3630   2   1639   1098   1103   1136
  3631   8   1640   1099   1638   1637
  3632   1   1640   1099   1638   1643
  3633   9   1133   1099   1638   1637
  3634   2   1643   1638   1099   1133
  3635   1   1638   1099   1640   1641
  3636   2   1638   1099   1640   1134
  3637   2   1641   1640   1099   1133
  3638   7   1133   1099   1640   1134
  3639   1   1101   1100   1639   1098
  3640   2   1101   1100   1639   1673
  3641   2   1098   1639   1100   1674
  3642   7   1674   1100   1639   1673
  3643   1   1639   1100   1101   1102
  3644   3   1639   1100   1101   1591
  3645   2   1102   1101   1100   1674
  3646   4   1674   1100   1101   1591
  3647   1   1100   1101   1102   1103
  3648   2   1100   1101   1102   1135
  3649   3   1103   1102   1101   1591
  3650   4   1135   1102   1101   1591
  3651   5   1100   1101   1591   1592
  3652   6   1100   1101   1591   1593
  3653   6   1100   1101   1591   1594
  3654   5   1102   1101   1591   1592
  3655   6   1102   1101   1591   1593
  3656   6   1102   1101   1591   1594
  3657   1   1101   1102   1103   1098
  3658   2   1101   1102   1103   1136
  3659   2   1098   1103   1102   1135
  3660   7   1135   1102   1103   1136
  3661   1   1109   1104   1105   1106
  3662   2   1109   1104   1105   1138
  3663   2   1106   1105   1104   1137
  3664   7   1137   1104   1105   1138
  3665   1   1105   1104   1109   1648
  3666   8   1105   1104   1109   1097
  3667   2   1648   1109   1104   1137
  3668   9   1137   1104   1109   1097
  3669   1   1104   1105   1106   1647
  3670   8   1104   1105   1106   1110
  3671   2   1647   1106   1105   1138
  3672   9   1138   1105   1106   1110
  3673   1   1105   1106   1647   1648
  3674   2   1105   1106   1647   1679
  3675   8   1648   1647   1106   1110
  3676   9   1679   1647   1106   1110
  3677  10   1105   1106   1110   1114
  3678  10   1105   1106   1110   1117
  3679  10   1105   1106   1110   1128
  3680  10   1647   1106   1110   1114
  3681  10   1647   1106   1110   1117
  3682  10   1647   1106   1110   1128
  3683   1   1108   1107   1646   1645
  3684   8   1108   1107   1646   1650
  3685   2   1645   1646   1107   1139
  3686   9   1139   1107   1646   1650
  3687   1   1646   1107   1108   1649
  3688   2   1646   1107   1108   1140
  3689   2   1649   1108   1107   1139
  3690   7   1139   1107   1108   1140
  3691   1   1107   1108   1649   1644
  3692   8   1107   1108   1649   1637
  3693   2   1644   1649   1108   1140
  3694   9   1140   1108   1649   1637
  3695   1   1104   1109   1648   1647
  3696   2   1104   1109   1648   1680
  3697   8   1647   1648   1109   1097
  3698   9   1680   1648   1109   1097
  3699  10   1113   1114   1110   1106
  3700  10   1115   1114   1110   1106
  3701  10   1113   1114   1110   1117
  3702  10   1115   1114   1110   1117
  3703  10   1113   1114   1110   1128
  3704  10   1115   1114   1110   1128
  3705  10   1658   1117   1110   1106
  3706  10   1122   1117   1110   1106
  3707  10   1658   1117   1110   1114
  3708  10   1122   1117   1110   1114
  3709  10   1658   1117   1110   1128
  3710  10   1122   1117   1110   1128
  3711  10   1127   1128   1110   1106
  3712  10   1123   1128   1110   1106
  3713  10   1127   1128   1110   1114
  3714  10   1123   1128   1110   1114
  3715  10   1127   1128   1110   1117
  3716  10   1123   1128   1110   1117
  3717   1   1116   1111   1112   1113
  3718   2   1116   1111   1112   1141
  3719   3   1113   1112   1111   1615
  3720   4   1141   1112   1111   1615
  3721   1   1112   1111   1116   1115
  3722   2   1112   1111   1116   1144
  3723   3   1115   1116   1111   1615
  3724   4   1144   1116   1111   1615
  3725   5   1112   1111   1615   1616
  3726   6   1112   1111   1615   1617
  3727   6   1112   1111   1615   1618
  3728   5   1116   1111   1615   1616
  3729   6   1116   1111   1615   1617
  3730   6   1116   1111   1615   1618
  3731   1   1111   1112   1113   1114
  3732   2   1111   1112   1113   1142
  3733   2   1114   1113   1112   1141
  3734   7   1141   1112   1113   1142
  3735   8   1112   1113   1114   1110
  3736   1   1112   1113   1114   1115
  3737   9   1142   1113   1114   1110
  3738   2   1115   1114   1113   1142
  3739   1   1113   1114   1115   1116
  3740   2   1113   1114   1115   1143
  3741   8   1116   1115   1114   1110
  3742   9   1143   1115   1114   1110
  3743   1   1114   1115   1116   1111
  3744   2   1114   1115   1116   1144
  3745   2   1111   1116   1115   1143
  3746   7   1143   1115   1116   1144
  3747   8   1659   1658   1117   1110
  3748   9   1685   1658   1117   1110
  3749   1   1122   1117   1658   1659
  3750   2   1122   1117   1658   1685
  3751   8   1121   1122   1117   1110
  3752   9   1148   1122   1117   1110
  3753   1   1658   1117   1122   1121
  3754   2   1658   1117   1122   1148
  3755   8   1119   1118   1657   1650
  3756   1   1119   1118   1657   1662
  3757   9   1145   1118   1657   1650
  3758   2   1662   1657   1118   1145
  3759   1   1657   1118   1119   1660
  3760   2   1657   1118   1119     66
  3761   2   1660   1119   1118   1145
  3762   7   1145   1118   1119     66
  3763   1   1118   1119   1660   1661
  3764   3   1118   1119   1660   1057
  3765   2   1661   1660   1119     66
  3766   4     66   1119   1660   1057
  3767   1   1121   1120   1659   1658
  3768   2   1121   1120   1659    606
  3769   3   1658   1659   1120    517
  3770   4    606   1659   1120    517
  3771   1   1659   1120   1121   1122
  3772   2   1659   1120   1121   1147
  3773   3   1122   1121   1120    517
  3774   4   1147   1121   1120    517
  3775   1   1120   1121   1122   1117
  3776   2   1120   1121   1122   1148
  3777   2   1117   1122   1121   1147
  3778   7   1147   1121   1122   1148
  3779   1   1128   1123   1664   1665
  3780   2   1128   1123   1664   1690
  3781   2   1665   1664   1123   1149
  3782   7   1149   1123   1664   1690
  3783   1   1664   1123   1128   1127
  3784   8   1664   1123   1128   1110
  3785   2   1127   1128   1123   1149
  3786   9   1149   1123   1128   1110
  3787   1   1125   1124   1663   1668
  3788   2   1125   1124   1663   1689
  3789   2   1668   1663   1124   1150
  3790   7   1150   1124   1663   1689
  3791   1   1663   1124   1125   1126
  3792   3   1663   1124   1125   1609
  3793   2   1126   1125   1124   1150
  3794   4   1150   1124   1125   1609
  3795   1   1124   1125   1126   1667
  3796   2   1124   1125   1126   1151
  3797   3   1667   1126   1125   1609
  3798   4   1151   1126   1125   1609
  3799   5   1124   1125   1609   2150
  3800   6   1124   1125   1609   1611
  3801   6   1124   1125   1609   1612
  3802   5   1126   1125   1609   2150
  3803   6   1126   1125   1609   1611
  3804   6   1126   1125   1609   1612
  3805   1   1125   1126   1667   1668
  3806   2   1125   1126   1667   1692
  3807   2   1668   1667   1126   1151
  3808   7   1151   1126   1667   1692
  3809   1   1128   1127   1666   1665
  3810   2   1128   1127   1666   1691
  3811   2   1665   1666   1127   1152
  3812   7   1152   1127   1666   1691
  3813   8   1666   1127   1128   1110
  3814   1   1666   1127   1128   1123
  3815   9   1152   1127   1128   1110
  3816   2   1123   1128   1127   1152
  3817   1   1158   1153   1154   1155
  3818   2   1158   1153   1154   1159
  3819   3   1155   1154   1153   1556
  3820   4   1159   1154   1153   1556
  3821   1   1154   1153   1158     77
  3822   2   1154   1153   1158   1162
  3823   3     77   1158   1153   1556
  3824   4   1162   1158   1153   1556
  3825   5   1154   1153   1556   1555
  3826   6   1154   1153   1556   1559
  3827   6   1154   1153   1556   1560
  3828   5   1158   1153   1556   1555
  3829   6   1158   1153   1556   1559
  3830   6   1158   1153   1556   1560
  3831   1   1153   1154   1155     76
  3832   2   1153   1154   1155   1160
  3833   2     76   1155   1154   1159
  3834   7   1159   1154   1155   1160
  3835   1     75   1156   1157     78
  3836   2     75   1156   1157   1161
  3837   8     78   1157   1156   1169
  3838   9   1161   1157   1156   1169
  3839  10     75   1156   1169   1164
  3840  10     75   1156   1169   1170
  3841  10     75   1156   1169   1181
  3842  10   1157   1156   1169   1164
  3843  10   1157   1156   1169   1170
  3844  10   1157   1156   1169   1181
  3845   1   1168   1163   1164   1165
  3846   8   1168   1163   1164   1169
  3847   2   1165   1164   1163   1201
  3848   9   1201   1163   1164   1169
  3849   1   1164   1163   1168   1167
  3850   2   1164   1163   1168   1204
  3851   2   1167   1168   1163   1201
  3852   7   1201   1163   1168   1204
  3853   1   1163   1164   1165   1166
  3854   2   1163   1164   1165   1202
  3855   8   1166   1165   1164   1169
  3856   9   1202   1165   1164   1169
  3857  10   1163   1164   1169   1156
  3858  10   1163   1164   1169   1170
  3859  10   1163   1164   1169   1181
  3860  10   1165   1164   1169   1156
  3861  10   1165   1164   1169   1170
  3862  10   1165   1164   1169   1181
  3863   1   1164   1165   1166   1167
  3864   2   1164   1165   1166   1203
  3865   2   1167   1166   1165   1202
  3866   7   1202   1165   1166   1203
  3867   1   1165   1166   1167   1168
  3868   3   1165   1166   1167   1574
  3869   2   1168   1167   1166   1203
  3870   4   1203   1166   1167   1574
  3871   1   1166   1167   1168   1163
  3872   2   1166   1167   1168   1204
  3873   3   1163   1168   1167   1574
  3874   4   1204   1168   1167   1574
  3875   5   1166   1167   1574   1573
  3876   6   1166   1167   1574   1577
  3877   6   1166   1167   1574   1578
  3878   5   1168   1167   1574   1573
  3879   6   1168   1167   1574   1577
  3880   6   1168   1167   1574   1578
  3881  10   1171   1170   1169   1156
  3882  10   1175   1170   1169   1156
  3883  10   1171   1170   1169   1164
  3884  10   1175   1170   1169   1164
  3885  10   1171   1170   1169   1181
  3886  10   1175   1170   1169   1181
  3887  10   1176   1181   1169   1156
  3888  10    100   1181   1169   1156
  3889  10   1176   1181   1169   1164
  3890  10    100   1181   1169   1164
  3891  10   1176   1181   1169   1170
  3892  10    100   1181   1169   1170
  3893   8   1172   1171   1170   1169
  3894   9   1205   1171   1170   1169
  3895   1   1175   1170   1171   1172
  3896   2   1175   1170   1171   1205
  3897   8   1174   1175   1170   1169
  3898   9   1208   1175   1170   1169
  3899   1   1171   1170   1175   1174
  3900   2   1171   1170   1175   1208
  3901   1   1170   1171   1172   1173
  3902   2   1170   1171   1172   1206
  3903   2   1173   1172   1171   1205
  3904   7   1205   1171   1172   1206
  3905   1   1171   1172   1173   1174
  3906   3   1171   1172   1173   1561
  3907   2   1174   1173   1172   1206
  3908   4   1206   1172   1173   1561
  3909   1   1172   1173   1174   1175
  3910   2   1172   1173   1174   1207
  3911   3   1175   1174   1173   1561
  3912   4   1207   1174   1173   1561
  3913   5   1172   1173   1561   1562
  3914   6   1172   1173   1561   1563
  3915   6   1172   1173   1561   1564
  3916   5   1174   1173   1561   1562
  3917   6   1174   1173   1561   1563
  3918   6   1174   1173   1561   1564
  3919   1   1173   1174   1175   1170
  3920   2   1173   1174   1175   1208
  3921   2   1170   1175   1174   1207
  3922   7   1207   1174   1175   1208
  3923   1   1181   1176   1177     98
  3924   2   1181   1176   1177   1210
  3925   2     98   1177   1176   1209
  3926   7   1209   1176   1177   1210
  3927   1   1177   1176   1181    100
  3928   8   1177   1176   1181   1169
  3929   2    100   1181   1176   1209
  3930   9   1209   1176   1181   1169
  3931   1     97   1178   1179   1180
  3932   2     97   1178   1179   1211
  3933   8   1180   1179   1178    102
  3934   9   1211   1179   1178    102
  3935   1   1178   1179   1180    101
  3936   2   1178   1179   1180   1212
  3937   2    101   1180   1179   1211
  3938   7   1211   1179   1180   1212
  3939  10   1185   1186   1182     98
  3940  10   1187   1186   1182     98
  3941  10   1185   1186   1182    109
  3942  10   1187   1186   1182    109
  3943  10   1185   1186   1182    120
  3944  10   1187   1186   1182    120
  3945   1   1188   1183   1184   1185
  3946   2   1188   1183   1184   1213
  3947   3   1185   1184   1183   1616
  3948   4   1213   1184   1183   1616
  3949   1   1184   1183   1188   1187
  3950   2   1184   1183   1188   1216
  3951   3   1187   1188   1183   1616
  3952   4   1216   1188   1183   1616
  3953   5   1184   1183   1616   1615
  3954   6   1184   1183   1616   1619
  3955   6   1184   1183   1616   1620
  3956   5   1188   1183   1616   1615
  3957   6   1188   1183   1616   1619
  3958   6   1188   1183   1616   1620
  3959   1   1183   1184   1185   1186
  3960   2   1183   1184   1185   1214
  3961   2   1186   1185   1184   1213
  3962   7   1213   1184   1185   1214
  3963   8   1184   1185   1186   1182
  3964   1   1184   1185   1186   1187
  3965   9   1214   1185   1186   1182
  3966   2   1187   1186   1185   1214
  3967   1   1185   1186   1187   1188
  3968   2   1185   1186   1187   1215
  3969   8   1188   1187   1186   1182
  3970   9   1215   1187   1186   1182
  3971   1   1186   1187   1188   1183
  3972   2   1186   1187   1188   1216
  3973   2   1183   1188   1187   1215
  3974   7   1215   1187   1188   1216
  3975   8   1731   1190   1189    102
  3976   9   1217   1190   1189    102
  3977   1    114   1189   1190   1731
  3978   2    114   1189   1190   1217
  3979   1   1189   1190   1731   1732
  3980   2   1189   1190   1731   1758
  3981   2   1732   1731   1190   1217
  3982   7   1217   1190   1731   1758
  3983   1   1192   1191   1730   1729
  3984   2   1192   1191   1730   1757
  3985   2   1729   1730   1191   1218
  3986   7   1218   1191   1730   1757
  3987   1   1730   1191   1192   1193
  3988   3   1730   1191   1192   1567
  3989   2   1193   1192   1191   1218
  3990   4   1218   1191   1192   1567
  3991   1   1191   1192   1193    654
  3992   2   1191   1192   1193    139
  3993   3    654   1193   1192   1567
  3994   4    139   1193   1192   1567
  3995   5   1191   1192   1567   1568
  3996   6   1191   1192   1567   1569
  3997   6   1191   1192   1567   1570
  3998   5   1193   1192   1567   1568
  3999   6   1193   1192   1567   1569
  4000   6   1193   1192   1567   1570
  4001   1    115   1196   1197   1198
  4002   3    115   1196   1197   1579
  4003   2   1198   1197   1196    142
  4004   4    142   1196   1197   1579
  4005   1   1196   1197   1198   1199
  4006   2   1196   1197   1198   1223
  4007   3   1199   1198   1197   1579
  4008   4   1223   1198   1197   1579
  4009   5   1196   1197   1579   1580
  4010   6   1196   1197   1579   1581
  4011   6   1196   1197   1579   1582
  4012   5   1198   1197   1579   1580
  4013   6   1198   1197   1579   1581
  4014   6   1198   1197   1579   1582
  4015   1   1197   1198   1199   1200
  4016   2   1197   1198   1199   1224
  4017   2   1200   1199   1198   1223
  4018   7   1223   1198   1199   1224
  4019   1   1198   1199   1200    115
  4020   8   1198   1199   1200    102
  4021   2    115   1200   1199   1224
  4022   9   1224   1199   1200    102
  4023   1   1230   1225   1226   1227
  4024   2   1230   1225   1226   1231
  4025   3   1227   1226   1225   1592
  4026   4   1231   1226   1225   1592
  4027   1   1226   1225   1230   1229
  4028   2   1226   1225   1230   1234
  4029   3   1229   1230   1225   1592
  4030   4   1234   1230   1225   1592
  4031   5   1226   1225   1592   1591
  4032   6   1226   1225   1592   1595
  4033   6   1226   1225   1592   1596
  4034   5   1230   1225   1592   1591
  4035   6   1230   1225   1592   1595
  4036   6   1230   1225   1592   1596
  4037   1   1225   1226   1227   1228
  4038   2   1225   1226   1227   1232
  4039   2   1228   1227   1226   1231
  4040   7   1231   1226   1227   1232
  4041   1   1226   1227   1228   1229
  4042   8   1226   1227   1228   1241
  4043   2   1229   1228   1227   1232
  4044   9   1232   1227   1228   1241
  4045   1   1227   1228   1229   1230
  4046   2   1227   1228   1229   1233
  4047   8   1230   1229   1228   1241
  4048   9   1233   1229   1228   1241
  4049  10   1227   1228   1241   1236
  4050  10   1227   1228   1241   1242
  4051  10   1227   1228   1241   1253
  4052  10   1229   1228   1241   1236
  4053  10   1229   1228   1241   1242
  4054  10   1229   1228   1241   1253
  4055   1   1228   1229   1230   1225
  4056   2   1228   1229   1230   1234
  4057   2   1225   1230   1229   1233
  4058   7   1233   1229   1230   1234
  4059   1   1240   1235   1236   1237
  4060   8   1240   1235   1236   1241
  4061   2   1237   1236   1235   1273
  4062   9   1273   1235   1236   1241
  4063   1   1236   1235   1240   1239
  4064   2   1236   1235   1240   1276
  4065   2   1239   1240   1235   1273
  4066   7   1273   1235   1240   1276
  4067   1   1235   1236   1237   1238
  4068   2   1235   1236   1237   1274
  4069   8   1238   1237   1236   1241
  4070   9   1274   1237   1236   1241
  4071  10   1235   1236   1241   1228
  4072  10   1235   1236   1241   1242
  4073  10   1235   1236   1241   1253
  4074  10   1237   1236   1241   1228
  4075  10   1237   1236   1241   1242
  4076  10   1237   1236   1241   1253
  4077   1   1236   1237   1238   1239
  4078   2   1236   1237   1238   1275
  4079   2   1239   1238   1237   1274
  4080   7   1274   1237   1238   1275
  4081   1   1237   1238   1239   1240
  4082   3   1237   1238   1239   1544
  4083   2   1240   1239   1238   1275
  4084   4   1275   1238   1239   1544
  4085   1   1238   1239   1240   1235
  4086   2   1238   1239   1240   1276
  4087   3   1235   1240   1239   1544
  4088   4   1276   1240   1239   1544
  4089   5   1238   1239   1544   1543
  4090   6   1238   1239   1544   1547
  4091   6   1238   1239   1544   1548
  4092   5   1240   1239   1544   1543
  4093   6   1240   1239   1544   1547
  4094   6   1240   1239   1544   1548
  4095  10   1243   1242   1241   1228
  4096  10   1247   1242   1241   1228
  4097  10   1243   1242   1241   1236
  4098  10   1247   1242   1241   1236
  4099  10   1243   1242   1241   1253
  4100  10   1247   1242   1241   1253
  4101  10   1248   1253   1241   1228
  4102  10   1252   1253   1241   1228
  4103  10   1248   1253   1241   1236
  4104  10   1252   1253   1241   1236
  4105  10   1248   1253   1241   1242
  4106  10   1252   1253   1241   1242
  4107   8   1244   1243   1242   1241
  4108   9   1277   1243   1242   1241
  4109   1   1247   1242   1243   1244
  4110   2   1247   1242   1243   1277
  4111   8   1246   1247   1242   1241
  4112   9   1280   1247   1242   1241
  4113   1   1243   1242   1247   1246
  4114   2   1243   1242   1247   1280
  4115   1   1242   1243   1244   1245
  4116   2   1242   1243   1244   1278
  4117   2   1245   1244   1243   1277
  4118   7   1277   1243   1244   1278
  4119   1   1243   1244   1245   1246
  4120   3   1243   1244   1245   1585
  4121   2   1246   1245   1244   1278
  4122   4   1278   1244   1245   1585
  4123   1   1244   1245   1246   1247
  4124   2   1244   1245   1246   1279
  4125   3   1247   1246   1245   1585
  4126   4   1279   1246   1245   1585
  4127   5   1244   1245   1585   1586
  4128   6   1244   1245   1585   1587
  4129   6   1244   1245   1585   1588
  4130   5   1246   1245   1585   1586
  4131   6   1246   1245   1585   1587
  4132   6   1246   1245   1585   1588
  4133   1   1245   1246   1247   1242
  4134   2   1245   1246   1247   1280
  4135   2   1242   1247   1246   1279
  4136   7   1279   1246   1247   1280
  4137   1   1253   1248   1249   1250
  4138   2   1253   1248   1249   1282
  4139   2   1250   1249   1248   1281
  4140   7   1281   1248   1249   1282
  4141   1   1249   1248   1253   1252
  4142   8   1249   1248   1253   1241
  4143   2   1252   1253   1248   1281
  4144   9   1281   1248   1253   1241
  4145   1   1248   1249   1250   1251
  4146   8   1248   1249   1250   1254
  4147   2   1251   1250   1249   1282
  4148   9   1282   1249   1250   1254
  4149   1   1249   1250   1251   1252
  4150   2   1249   1250   1251   1283
  4151   8   1252   1251   1250   1254
  4152   9   1283   1251   1250   1254
  4153  10   1249   1250   1254   1258
  4154  10   1249   1250   1254   1261
  4155  10   1249   1250   1254   1272
  4156  10   1251   1250   1254   1258
  4157  10   1251   1250   1254   1261
  4158  10   1251   1250   1254   1272
  4159   1   1250   1251   1252   1253
  4160   2   1250   1251   1252   1284
  4161   2   1253   1252   1251   1283
  4162   7   1283   1251   1252   1284
  4163   1   1251   1252   1253   1248
  4164   8   1251   1252   1253   1241
  4165   2   1248   1253   1252   1284
  4166   9   1284   1252   1253   1241
  4167  10   1257   1258   1254   1250
  4168  10   1259   1258   1254   1250
  4169  10   1257   1258   1254   1261
  4170  10   1259   1258   1254   1261
  4171  10   1257   1258   1254   1272
  4172  10   1259   1258   1254   1272
  4173  10   1262   1261   1254   1250
  4174  10   1266   1261   1254   1250
  4175  10   1262   1261   1254   1258
  4176  10   1266   1261   1254   1258
  4177  10   1262   1261   1254   1272
  4178  10   1266   1261   1254   1272
  4179  10   1267   1272   1254   1250
  4180  10   1271   1272   1254   1250
  4181  10   1267   1272   1254   1258
  4182  10   1271   1272   1254   1258
  4183  10   1267   1272   1254   1261
  4184  10   1271   1272   1254   1261
  4185   1   1260   1255   1256   1257
  4186   2   1260   1255   1256   1285
  4187   3   1257   1256   1255   1549
  4188   4   1285   1256   1255   1549
  4189   1   1256   1255   1260   1259
  4190   2   1256   1255   1260   1288
  4191   3   1259   1260   1255   1549
  4192   4   1288   1260   1255   1549
  4193   5   1256   1255   1549   1550
  4194   6   1256   1255   1549   1551
  4195   6   1256   1255   1549   1552
  4196   5   1260   1255   1549   1550
  4197   6   1260   1255   1549   1551
  4198   6   1260   1255   1549   1552
  4199   1   1255   1256   1257   1258
  4200   2   1255   1256   1257   1286
  4201   2   1258   1257   1256   1285
  4202   7   1285   1256   1257   1286
  4203   8   1256   1257   1258   1254
  4204   1   1256   1257   1258   1259
  4205   9   1286   1257   1258   1254
  4206   2   1259   1258   1257   1286
  4207   1   1257   1258   1259   1260
  4208   2   1257   1258   1259   1287
  4209   8   1260   1259   1258   1254
  4210   9   1287   1259   1258   1254
  4211   1   1258   1259   1260   1255
  4212   2   1258   1259   1260   1288
  4213   2   1255   1260   1259   1287
  4214   7   1287   1259   1260   1288
  4215   8   1263   1262   1261   1254
  4216   9   1289   1262   1261   1254
  4217   1   1266   1261   1262   1263
  4218   2   1266   1261   1262   1289
  4219   8   1265   1266   1261   1254
  4220   9   1292   1266   1261   1254
  4221   1   1262   1261   1266   1265
  4222   2   1262   1261   1266   1292
  4223   1   1261   1262   1263   1264
  4224   2   1261   1262   1263   1290
  4225   2   1264   1263   1262   1289
  4226   7   1289   1262   1263   1290
  4227   1   1262   1263   1264   1265
  4228   3   1262   1263   1264   1538
  4229   2   1265   1264   1263   1290
  4230   4   1290   1263   1264   1538
  4231   1   1263   1264   1265   1266
  4232   2   1263   1264   1265   1291
  4233   3   1266   1265   1264   1538
  4234   4   1291   1265   1264   1538
  4235   5   1263   1264   1538   1537
  4236   6   1263   1264   1538   2081
  4237   6   1263   1264   1538   1542
  4238   5   1265   1264   1538   1537
  4239   6   1265   1264   1538   2081
  4240   6   1265   1264   1538   1542
  4241   1   1264   1265   1266   1261
  4242   2   1264   1265   1266   1292
  4243   2   1261   1266   1265   1291
  4244   7   1291   1265   1266   1292
  4245   1   1272   1267   1268   1269
  4246   2   1272   1267   1268   1294
  4247   2   1269   1268   1267   1293
  4248   7   1293   1267   1268   1294
  4249   1   1268   1267   1272   1271
  4250   8   1268   1267   1272   1254
  4251   2   1271   1272   1267   1293
  4252   9   1293   1267   1272   1254
  4253   1   1267   1268   1269   1270
  4254   3   1267   1268   1269   1573
  4255   2   1270   1269   1268   1294
  4256   4   1294   1268   1269   1573
  4257   1   1268   1269   1270   1271
  4258   2   1268   1269   1270   1295
  4259   3   1271   1270   1269   1573
  4260   4   1295   1270   1269   1573
  4261   5   1268   1269   1573   1574
  4262   6   1268   1269   1573   1575
  4263   6   1268   1269   1573   1576
  4264   5   1270   1269   1573   1574
  4265   6   1270   1269   1573   1575
  4266   6   1270   1269   1573   1576
  4267   1   1269   1270   1271   1272
  4268   2   1269   1270   1271   1296
  4269   2   1272   1271   1270   1295
  4270   7   1295   1270   1271   1296
  4271   1   1270   1271   1272   1267
  4272   8   1270   1271   1272   1254
  4273   2   1267   1272   1271   1296
  4274   9   1296   1271   1272   1254
  4275   1   1302   1297   1298   1299
  4276   2   1302   1297   1298   1303
  4277   3   1299   1298   1297   1520
  4278   4   1303   1298   1297   1520
  4279   1   1298   1297   1302   1301
  4280   2   1298   1297   1302   1306
  4281   3   1301   1302   1297   1520
  4282   4   1306   1302   1297   1520
  4283   5   1298   1297   1520   1519
  4284   6   1298   1297   1520   1523
  4285   6   1298   1297   1520   1524
  4286   5   1302   1297   1520   1519
  4287   6   1302   1297   1520   1523
  4288   6   1302   1297   1520   1524
  4289   1   1297   1298   1299   1300
  4290   2   1297   1298   1299   1304
  4291   2   1300   1299   1298   1303
  4292   7   1303   1298   1299   1304
  4293   1   1298   1299   1300   1301
  4294   8   1298   1299   1300   1313
  4295   2   1301   1300   1299   1304
  4296   9   1304   1299   1300   1313
  4297   1   1299   1300   1301   1302
  4298   2   1299   1300   1301   1305
  4299   8   1302   1301   1300   1313
  4300   9   1305   1301   1300   1313
  4301  10   1299   1300   1313   1308
  4302  10   1299   1300   1313   1314
  4303  10   1299   1300   1313   1325
  4304  10   1301   1300   1313   1308
  4305  10   1301   1300   1313   1314
  4306  10   1301   1300   1313   1325
  4307   1   1300   1301   1302   1297
  4308   2   1300   1301   1302   1306
  4309   2   1297   1302   1301   1305
  4310   7   1305   1301   1302   1306
  4311   1   1312   1307   1308   1309
  4312   8   1312   1307   1308   1313
  4313   2   1309   1308   1307   1345
  4314   9   1345   1307   1308   1313
  4315   1   1308   1307   1312   1311
  4316   2   1308   1307   1312   1348
  4317   2   1311   1312   1307   1345
  4318   7   1345   1307   1312   1348
  4319   1   1307   1308   1309   1310
  4320   2   1307   1308   1309   1346
  4321   8   1310   1309   1308   1313
  4322   9   1346   1309   1308   1313
  4323  10   1307   1308   1313   1300
  4324  10   1307   1308   1313   1314
  4325  10   1307   1308   1313   1325
  4326  10   1309   1308   1313   1300
  4327  10   1309   1308   1313   1314
  4328  10   1309   1308   1313   1325
  4329   1   1308   1309   1310   1311
  4330   2   1308   1309   1310   1347
  4331   2   1311   1310   1309   1346
  4332   7   1346   1309   1310   1347
  4333   1   1309   1310   1311   1312
  4334   3   1309   1310   1311   1610
  4335   2   1312   1311   1310   1347
  4336   4   1347   1310   1311   1610
  4337   1   1310   1311   1312   1307
  4338   2   1310   1311   1312   1348
  4339   3   1307   1312   1311   1610
  4340   4   1348   1312   1311   1610
  4341   5   1310   1311   1610   2149
  4342   6   1310   1311   1610   1613
  4343   6   1310   1311   1610   1614
  4344   5   1312   1311   1610   2149
  4345   6   1312   1311   1610   1613
  4346   6   1312   1311   1610   1614
  4347  10   1315   1314   1313   1300
  4348  10   1319   1314   1313   1300
  4349  10   1315   1314   1313   1308
  4350  10   1319   1314   1313   1308
  4351  10   1315   1314   1313   1325
  4352  10   1319   1314   1313   1325
  4353  10   1324   1325   1313   1300
  4354  10   1320   1325   1313   1300
  4355  10   1324   1325   1313   1308
  4356  10   1320   1325   1313   1308
  4357  10   1324   1325   1313   1314
  4358  10   1320   1325   1313   1314
  4359   8   1856   1315   1314   1313
  4360   9   1349   1315   1314   1313
  4361   1   1319   1314   1315   1856
  4362   2   1319   1314   1315   1349
  4363   8   1318   1319   1314   1313
  4364   9   1352   1319   1314   1313
  4365   1   1315   1314   1319   1318
  4366   2   1315   1314   1319   1352
  4367   1   1314   1315   1856   1317
  4368   2   1314   1315   1856   1890
  4369   2   1317   1856   1315   1349
  4370   7   1349   1315   1856   1890
  4371   1   1857   1316   1855   1854
  4372   2   1857   1316   1855   1889
  4373   2   1854   1855   1316   1350
  4374   7   1350   1316   1855   1889
  4375   1   1855   1316   1857   1858
  4376   3   1855   1316   1857   1525
  4377   2   1858   1857   1316   1350
  4378   4   1350   1316   1857   1525
  4379   1   1318   1317   1856   1315
  4380   2   1318   1317   1856   1890
  4381   3   1315   1856   1317   2065
  4382   4   1890   1856   1317   2065
  4383   1   1856   1317   1318   1319
  4384   2   1856   1317   1318   1351
  4385   3   1319   1318   1317   2065
  4386   4   1351   1318   1317   2065
  4387   5   1856   1317   2065   2066
  4388   6   1856   1317   2065   2067
  4389   6   1856   1317   2065   2068
  4390   5   1318   1317   2065   2066
  4391   6   1318   1317   2065   2067
  4392   6   1318   1317   2065   2068
  4393   1   1317   1318   1319   1314
  4394   2   1317   1318   1319   1352
  4395   2   1314   1319   1318   1351
  4396   7   1351   1318   1319   1352
  4397   1   1325   1320   1321   1322
  4398   2   1325   1320   1321   1354
  4399   2   1322   1321   1320   1353
  4400   7   1353   1320   1321   1354
  4401   8   1321   1320   1325   1313
  4402   1   1321   1320   1325   1324
  4403   9   1353   1320   1325   1313
  4404   2   1324   1325   1320   1353
  4405   1   1320   1321   1322   1323
  4406   8   1320   1321   1322   1326
  4407   2   1323   1322   1321   1354
  4408   9   1354   1321   1322   1326
  4409   1   1321   1322   1323   1324
  4410   2   1321   1322   1323   1355
  4411   8   1324   1323   1322   1326
  4412   9   1355   1323   1322   1326
  4413  10   1321   1322   1326   1870
  4414  10   1321   1322   1326   1873
  4415  10   1321   1322   1326   1344
  4416  10   1323   1322   1326   1870
  4417  10   1323   1322   1326   1873
  4418  10   1323   1322   1326   1344
  4419   1   1322   1323   1324   1325
  4420   2   1322   1323   1324   1356
  4421   2   1325   1324   1323   1355
  4422   7   1355   1323   1324   1356
  4423   8   1323   1324   1325   1313
  4424   1   1323   1324   1325   1320
  4425   9   1356   1324   1325   1313
  4426   2   1320   1325   1324   1356
  4427  10   1329   1870   1326   1322
  4428  10   1871   1870   1326   1322
  4429  10   1329   1870   1326   1873
  4430  10   1871   1870   1326   1873
  4431  10   1329   1870   1326   1344
  4432  10   1871   1870   1326   1344
  4433  10   1874   1873   1326   1322
  4434  10   1878   1873   1326   1322
  4435  10   1874   1873   1326   1870
  4436  10   1878   1873   1326   1870
  4437  10   1874   1873   1326   1344
  4438  10   1878   1873   1326   1344
  4439  10   1343   1344   1326   1322
  4440  10   1879   1344   1326   1322
  4441  10   1343   1344   1326   1870
  4442  10   1879   1344   1326   1870
  4443  10   1343   1344   1326   1873
  4444  10   1879   1344   1326   1873
  4445   1   1332   1327   1328   1869
  4446   2   1332   1327   1328   1897
  4447   3   1869   1328   1327   1550
  4448   4   1897   1328   1327   1550
  4449   1   1328   1327   1332   1331
  4450   2   1328   1327   1332   1360
  4451   3   1331   1332   1327   1550
  4452   4   1360   1332   1327   1550
  4453   5   1328   1327   1550   1549
  4454   6   1328   1327   1550   1553
  4455   6   1328   1327   1550   1554
  4456   5   1332   1327   1550   1549
  4457   6   1332   1327   1550   1553
  4458   6   1332   1327   1550   1554
  4459   1   1327   1328   1869   1330
  4460   2   1327   1328   1869   1898
  4461   2   1330   1869   1328   1897
  4462   7   1897   1328   1869   1898
  4463   1   1870   1329   1868   1867
  4464   2   1870   1329   1868   1357
  4465   2   1867   1868   1329   1358
  4466   7   1358   1329   1868   1357
  4467   8   1868   1329   1870   1326
  4468   1   1868   1329   1870   1871
  4469   9   1358   1329   1870   1326
  4470   2   1871   1870   1329   1358
  4471   8   1328   1869   1330   1866
  4472   9   1898   1869   1330   1866
  4473   1   1331   1330   1869   1328
  4474   2   1331   1330   1869   1898
  4475  10   1869   1330   1866   1862
  4476  10   1869   1330   1866   1333
  4477  10   1869   1330   1866   1884
  4478  10   1331   1330   1866   1862
  4479  10   1331   1330   1866   1333
  4480  10   1331   1330   1866   1884
  4481   1   1869   1330   1331   1332
  4482   2   1869   1330   1331   1359
  4483   8   1332   1331   1330   1866
  4484   9   1359   1331   1330   1866
  4485   1   1330   1331   1332   1327
  4486   2   1330   1331   1332   1360
  4487   2   1327   1332   1331   1359
  4488   7   1359   1331   1332   1360
  4489  10   1334   1333   1866   1862
  4490  10   1334   1333   1866   1330
  4491  10   1334   1333   1866   1884
  4492  10   1338   1333   1866   1862
  4493  10   1338   1333   1866   1330
  4494  10   1338   1333   1866   1884
  4495   8   1335   1334   1333   1866
  4496   9   1901   1334   1333   1866
  4497   1   1338   1333   1334   1335
  4498   2   1338   1333   1334   1901
  4499   8   1337   1338   1333   1866
  4500   9   1364   1338   1333   1866
  4501   1   1334   1333   1338   1337
  4502   2   1334   1333   1338   1364
  4503   1   1333   1334   1335   1336
  4504   2   1333   1334   1335   1362
  4505   2   1336   1335   1334   1901
  4506   7   1901   1334   1335   1362
  4507   1   1334   1335   1336   1337
  4508   3   1334   1335   1336   1568
  4509   2   1337   1336   1335   1362
  4510   4   1362   1335   1336   1568
  4511   1   1335   1336   1337   1338
  4512   2   1335   1336   1337   1363
  4513   3   1338   1337   1336   1568
  4514   4   1363   1337   1336   1568
  4515   5   1335   1336   1568   1567
  4516   6   1335   1336   1568   1571
  4517   6   1335   1336   1568   1572
  4518   5   1337   1336   1568   1567
  4519   6   1337   1336   1568   1571
  4520   6   1337   1336   1568   1572
  4521   1   1336   1337   1338   1333
  4522   2   1336   1337   1338   1364
  4523   2   1333   1338   1337   1363
  4524   7   1363   1337   1338   1364
  4525   1   1884   1339   1880   1881
  4526   2   1884   1339   1880   1366
  4527   2   1881   1880   1339   1365
  4528   7   1365   1339   1880   1366
  4529   1   1880   1339   1884   1883
  4530   8   1880   1339   1884   1866
  4531   2   1883   1884   1339   1365
  4532   9   1365   1339   1884   1866
  4533   1   1341   1340   1879   1344
  4534   2   1341   1340   1879   1905
  4535   2   1344   1879   1340   1906
  4536   7   1906   1340   1879   1905
  4537   1   1879   1340   1341   1342
  4538   3   1879   1340   1341   1531
  4539   2   1342   1341   1340   1906
  4540   4   1906   1340   1341   1531
  4541   1   1340   1341   1342   1343
  4542   2   1340   1341   1342   1367
  4543   3   1343   1342   1341   1531
  4544   4   1367   1342   1341   1531
  4545   5   1340   1341   1531   1532
  4546   6   1340   1341   1531   1533
  4547   6   1340   1341   1531   1534
  4548   5   1342   1341   1531   1532
  4549   6   1342   1341   1531   1533
  4550   6   1342   1341   1531   1534
  4551   1   1341   1342   1343   1344
  4552   2   1341   1342   1343   1368
  4553   2   1344   1343   1342   1367
  4554   7   1367   1342   1343   1368
  4555   8   1342   1343   1344   1326
  4556   1   1342   1343   1344   1879
  4557   9   1368   1343   1344   1326
  4558   2   1879   1344   1343   1368
  4559   1   1343   1344   1879   1340
  4560   2   1343   1344   1879   1905
  4561   8   1340   1879   1344   1326
  4562   9   1905   1879   1344   1326
  4563   1   1374   1369   1370   1371
  4564   2   1374   1369   1370   1375
  4565   3   1371   1370   1369   1562
  4566   4   1375   1370   1369   1562
  4567   1   1370   1369   1374   1373
  4568   2   1370   1369   1374   1378
  4569   3   1373   1374   1369   1562
  4570   4   1378   1374   1369   1562
  4571   5   1370   1369   1562   1561
  4572   6   1370   1369   1562   1565
  4573   6   1370   1369   1562   1566
  4574   5   1374   1369   1562   1561
  4575   6   1374   1369   1562   1565
  4576   6   1374   1369   1562   1566
  4577   1   1369   1370   1371   1372
  4578   2   1369   1370   1371   1376
  4579   2   1372   1371   1370   1375
  4580   7   1375   1370   1371   1376
  4581   1   1370   1371   1372   1373
  4582   8   1370   1371   1372   1385
  4583   2   1373   1372   1371   1376
  4584   9   1376   1371   1372   1385
  4585   1   1371   1372   1373   1374
  4586   2   1371   1372   1373   1377
  4587   8   1374   1373   1372   1385
  4588   9   1377   1373   1372   1385
  4589  10   1371   1372   1385   1380
  4590  10   1371   1372   1385   1386
  4591  10   1371   1372   1385   1397
  4592  10   1373   1372   1385   1380
  4593  10   1373   1372   1385   1386
  4594  10   1373   1372   1385   1397
  4595   1   1372   1373   1374   1369
  4596   2   1372   1373   1374   1378
  4597   2   1369   1374   1373   1377
  4598   7   1377   1373   1374   1378
  4599   1   1384   1379   1380   1381
  4600   8   1384   1379   1380   1385
  4601   2   1381   1380   1379   1417
  4602   9   1417   1379   1380   1385
  4603   1   1380   1379   1384   1383
  4604   2   1380   1379   1384   1420
  4605   2   1383   1384   1379   1417
  4606   7   1417   1379   1384   1420
  4607   1   1379   1380   1381   1382
  4608   2   1379   1380   1381   1418
  4609   8   1382   1381   1380   1385
  4610   9   1418   1381   1380   1385
  4611  10   1379   1380   1385   1372
  4612  10   1379   1380   1385   1386
  4613  10   1379   1380   1385   1397
  4614  10   1381   1380   1385   1372
  4615  10   1381   1380   1385   1386
  4616  10   1381   1380   1385   1397
  4617   1   1380   1381   1382   1383
  4618   2   1380   1381   1382   1419
  4619   2   1383   1382   1381   1418
  4620   7   1418   1381   1382   1419
  4621   1   1381   1382   1383   1384
  4622   3   1381   1382   1383   1532
  4623   2   1384   1383   1382   1419
  4624   4   1419   1382   1383   1532
  4625   1   1382   1383   1384   1379
  4626   2   1382   1383   1384   1420
  4627   3   1379   1384   1383   1532
  4628   4   1420   1384   1383   1532
  4629   5   1382   1383   1532   1531
  4630   6   1382   1383   1532   1535
  4631   6   1382   1383   1532   1536
  4632   5   1384   1383   1532   1531
  4633   6   1384   1383   1532   1535
  4634   6   1384   1383   1532   1536
  4635  10   1387   1386   1385   1372
  4636  10   1391   1386   1385   1372
  4637  10   1387   1386   1385   1380
  4638  10   1391   1386   1385   1380
  4639  10   1387   1386   1385   1397
  4640  10   1391   1386   1385   1397
  4641  10   1396   1397   1385   1372
  4642  10   1392   1397   1385   1372
  4643  10   1396   1397   1385   1380
  4644  10   1392   1397   1385   1380
  4645  10   1396   1397   1385   1386
  4646  10   1392   1397   1385   1386
  4647   8   1388   1387   1386   1385
  4648   9   1421   1387   1386   1385
  4649   1   1391   1386   1387   1388
  4650   2   1391   1386   1387   1421
  4651   8   1390   1391   1386   1385
  4652   9   1424   1391   1386   1385
  4653   1   1387   1386   1391   1390
  4654   2   1387   1386   1391   1424
  4655   1   1386   1387   1388   1389
  4656   2   1386   1387   1388   1422
  4657   2   1389   1388   1387   1421
  4658   7   1421   1387   1388   1422
  4659   1   1387   1388   1389   1390
  4660   3   1387   1388   1389   1555
  4661   2   1390   1389   1388   1422
  4662   4   1422   1388   1389   1555
  4663   1   1388   1389   1390   1391
  4664   2   1388   1389   1390   1423
  4665   3   1391   1390   1389   1555
  4666   4   1423   1390   1389   1555
  4667   5   1388   1389   1555   1556
  4668   6   1388   1389   1555   1557
  4669   6   1388   1389   1555   1558
  4670   5   1390   1389   1555   1556
  4671   6   1390   1389   1555   1557
  4672   6   1390   1389   1555   1558
  4673   1   1389   1390   1391   1386
  4674   2   1389   1390   1391   1424
  4675   2   1386   1391   1390   1423
  4676   7   1423   1390   1391   1424
  4677   1   1397   1392   1393   1394
  4678   2   1397   1392   1393   1426
  4679   2   1394   1393   1392   1425
  4680   7   1425   1392   1393   1426
  4681   1   1393   1392   1397   1396
  4682   8   1393   1392   1397   1385
  4683   2   1396   1397   1392   1425
  4684   9   1425   1392   1397   1385
  4685   1   1392   1393   1394   1395
  4686   8   1392   1393   1394   1398
  4687   2   1395   1394   1393   1426
  4688   9   1426   1393   1394   1398
  4689   1   1393   1394   1395   1396
  4690   2   1393   1394   1395   1427
  4691   8   1396   1395   1394   1398
  4692   9   1427   1395   1394   1398
  4693  10   1393   1394   1398   1402
  4694  10   1393   1394   1398   1405
  4695  10   1393   1394   1398   1416
  4696  10   1395   1394   1398   1402
  4697  10   1395   1394   1398   1405
  4698  10   1395   1394   1398   1416
  4699   1   1394   1395   1396   1397
  4700   2   1394   1395   1396   1428
  4701   2   1397   1396   1395   1427
  4702   7   1427   1395   1396   1428
  4703   8   1395   1396   1397   1385
  4704   1   1395   1396   1397   1392
  4705   9   1428   1396   1397   1385
  4706   2   1392   1397   1396   1428
  4707  10   1401   1402   1398   1394
  4708  10   1403   1402   1398   1394
  4709  10   1401   1402   1398   1405
  4710  10   1403   1402   1398   1405
  4711  10   1401   1402   1398   1416
  4712  10   1403   1402   1398   1416
  4713  10   1406   1405   1398   1394
  4714  10   1410   1405   1398   1394
  4715  10   1406   1405   1398   1402
  4716  10   1410   1405   1398   1402
  4717  10   1406   1405   1398   1416
  4718  10   1410   1405   1398   1416
  4719  10   1415   1416   1398   1394
  4720  10   1411   1416   1398   1394
  4721  10   1415   1416   1398   1402
  4722  10   1411   1416   1398   1402
  4723  10   1415   1416   1398   1405
  4724  10   1411   1416   1398   1405
  4725   1   1404   1399   1400   1401
  4726   2   1404   1399   1400   1429
  4727   3   1401   1400   1399   1513
  4728   4   1429   1400   1399   1513
  4729   1   1400   1399   1404   1403
  4730   2   1400   1399   1404   1432
  4731   3   1403   1404   1399   1513
  4732   4   1432   1404   1399   1513
  4733   5   1400   1399   1513   1514
  4734   6   1400   1399   1513   1515
  4735   6   1400   1399   1513   1516
  4736   5   1404   1399   1513   1514
  4737   6   1404   1399   1513   1515
  4738   6   1404   1399   1513   1516
  4739   1   1399   1400   1401   1402
  4740   2   1399   1400   1401   1430
  4741   2   1402   1401   1400   1429
  4742   7   1429   1400   1401   1430
  4743   8   1400   1401   1402   1398
  4744   1   1400   1401   1402   1403
  4745   9   1430   1401   1402   1398
  4746   2   1403   1402   1401   1430
  4747   8   1404   1403   1402   1398
  4748   9   1431   1403   1402   1398
  4749   1   1401   1402   1403   1404
  4750   2   1401   1402   1403   1431
  4751   1   1402   1403   1404   1399
  4752   2   1402   1403   1404   1432
  4753   2   1399   1404   1403   1431
  4754   7   1431   1403   1404   1432
  4755   8   1407   1406   1405   1398
  4756   9   1433   1406   1405   1398
  4757   1   1410   1405   1406   1407
  4758   2   1410   1405   1406   1433
  4759   8   1409   1410   1405   1398
  4760   9   1436   1410   1405   1398
  4761   1   1406   1405   1410   1409
  4762   2   1406   1405   1410   1436
  4763   1   1405   1406   1407   1408
  4764   2   1405   1406   1407   1434
  4765   2   1408   1407   1406   1433
  4766   7   1433   1406   1407   1434
  4767   1   1406   1407   1408   1409
  4768   3   1406   1407   1408   1537
  4769   2   1409   1408   1407   1434
  4770   4   1434   1407   1408   1537
  4771   1   1407   1408   1409   1410
  4772   2   1407   1408   1409   1435
  4773   3   1410   1409   1408   1537
  4774   4   1435   1409   1408   1537
  4775   5   1407   1408   1537   1538
  4776   6   1407   1408   1537   1539
  4777   6   1407   1408   1537   1540
  4778   5   1409   1408   1537   1538
  4779   6   1409   1408   1537   1539
  4780   6   1409   1408   1537   1540
  4781   1   1408   1409   1410   1405
  4782   2   1408   1409   1410   1436
  4783   2   1405   1410   1409   1435
  4784   7   1435   1409   1410   1436
  4785   1   1416   1411   1412   1413
  4786   2   1416   1411   1412   1438
  4787   2   1413   1412   1411   1437
  4788   7   1437   1411   1412   1438
  4789   1   1412   1411   1416   1415
  4790   8   1412   1411   1416   1398
  4791   2   1415   1416   1411   1437
  4792   9   1437   1411   1416   1398
  4793   1   1411   1412   1413   1414
  4794   3   1411   1412   1413   1603
  4795   2   1414   1413   1412   1438
  4796   4   1438   1412   1413   1603
  4797   1   1412   1413   1414   1415
  4798   2   1412   1413   1414   1439
  4799   3   1415   1414   1413   1603
  4800   4   1439   1414   1413   1603
  4801   5   1412   1413   1603   1604
  4802   6   1412   1413   1603   1605
  4803   6   1412   1413   1603   1606
  4804   5   1414   1413   1603   1604
  4805   6   1414   1413   1603   1605
  4806   6   1414   1413   1603   1606
  4807   1   1413   1414   1415   1416
  4808   2   1413   1414   1415   1440
  4809   2   1416   1415   1414   1439
  4810   7   1439   1414   1415   1440
  4811   8   1414   1415   1416   1398
  4812   1   1414   1415   1416   1411
  4813   9   1440   1415   1416   1398
  4814   2   1411   1416   1415   1440
  4815   1   1446   1441   1442   1443
  4816   2   1446   1441   1442   1447
  4817   3   1443   1442   1441   1526
  4818   4   1447   1442   1441   1526
  4819   1   1442   1441   1446   1445
  4820   2   1442   1441   1446   1450
  4821   3   1445   1446   1441   1526
  4822   4   1450   1446   1441   1526
  4823   5   1442   1441   1526   1525
  4824   6   1442   1441   1526   1529
  4825   6   1442   1441   1526   1530
  4826   5   1446   1441   1526   1525
  4827   6   1446   1441   1526   1529
  4828   6   1446   1441   1526   1530
  4829   1   1441   1442   1443   1444
  4830   2   1441   1442   1443   1448
  4831   2   1444   1443   1442   1447
  4832   7   1447   1442   1443   1448
  4833   1   1442   1443   1444   1445
  4834   8   1442   1443   1444   1457
  4835   2   1445   1444   1443   1448
  4836   9   1448   1443   1444   1457
  4837   1   1443   1444   1445   1446
  4838   2   1443   1444   1445   1449
  4839   8   1446   1445   1444   1457
  4840   9   1449   1445   1444   1457
  4841  10   1443   1444   1457   1452
  4842  10   1443   1444   1457   1458
  4843  10   1443   1444   1457   1469
  4844  10   1445   1444   1457   1452
  4845  10   1445   1444   1457   1458
  4846  10   1445   1444   1457   1469
  4847   1   1444   1445   1446   1441
  4848   2   1444   1445   1446   1450
  4849   2   1441   1446   1445   1449
  4850   7   1449   1445   1446   1450
  4851   1   1456   1451   1452   1453
  4852   8   1456   1451   1452   1457
  4853   2   1453   1452   1451   1489
  4854   9   1489   1451   1452   1457
  4855   1   1452   1451   1456   1455
  4856   2   1452   1451   1456   1492
  4857   2   1455   1456   1451   1489
  4858   7   1489   1451   1456   1492
  4859   1   1451   1452   1453   1454
  4860   2   1451   1452   1453   1490
  4861   8   1454   1453   1452   1457
  4862   9   1490   1453   1452   1457
  4863  10   1451   1452   1457   1444
  4864  10   1451   1452   1457   1458
  4865  10   1451   1452   1457   1469
  4866  10   1453   1452   1457   1444
  4867  10   1453   1452   1457   1458
  4868  10   1453   1452   1457   1469
  4869   1   1452   1453   1454   1455
  4870   2   1452   1453   1454    411
  4871   2   1455   1454   1453   1490
  4872   7   1490   1453   1454    411
  4873   1   1453   1454   1455   1456
  4874   3   1453   1454   1455    500
  4875   2   1456   1455   1454    411
  4876   4    411   1454   1455    500
  4877   1   1454   1455   1456   1451
  4878   2   1454   1455   1456   1492
  4879   3   1451   1456   1455    500
  4880   4   1492   1456   1455    500
  4881  10   1459   1458   1457   1444
  4882  10   1463   1458   1457   1444
  4883  10   1459   1458   1457   1452
  4884  10   1463   1458   1457   1452
  4885  10   1459   1458   1457   1469
  4886  10   1463   1458   1457   1469
  4887  10   1468   1469   1457   1444
  4888  10   1464   1469   1457   1444
  4889  10   1468   1469   1457   1452
  4890  10   1464   1469   1457   1452
  4891  10   1468   1469   1457   1458
  4892  10   1464   1469   1457   1458
  4893   8    380   1459   1458   1457
  4894   9    413   1459   1458   1457
  4895   1   1463   1458   1459    380
  4896   2   1463   1458   1459    413
  4897   8   1462   1463   1458   1457
  4898   9   1496   1463   1458   1457
  4899   1   1459   1458   1463   1462
  4900   2   1459   1458   1463   1496
  4901   1    380   1461   1462   1463
  4902   2    380   1461   1462   1495
  4903   3   1463   1462   1461    439
  4904   4   1495   1462   1461    439
  4905   1   1461   1462   1463   1458
  4906   2   1461   1462   1463   1496
  4907   2   1458   1463   1462   1495
  4908   7   1495   1462   1463   1496
  4909   1   1469   1464   1465   1466
  4910   2   1469   1464   1465   1498
  4911   2   1466   1465   1464   1497
  4912   7   1497   1464   1465   1498
  4913   1   1465   1464   1469   1468
  4914   8   1465   1464   1469   1457
  4915   2   1468   1469   1464   1497
  4916   9   1497   1464   1469   1457
  4917   1   1464   1465   1466   1467
  4918   8   1464   1465   1466   1470
  4919   2   1467   1466   1465   1498
  4920   9   1498   1465   1466   1470
  4921   1   1465   1466   1467   1468
  4922   2   1465   1466   1467   1499
  4923   8   1468   1467   1466   1470
  4924   9   1499   1467   1466   1470
  4925  10   1465   1466   1470   1474
  4926  10   1465   1466   1470   1477
  4927  10   1465   1466   1470   1488
  4928  10   1467   1466   1470   1474
  4929  10   1467   1466   1470   1477
  4930  10   1467   1466   1470   1488
  4931   1   1466   1467   1468   1469
  4932   2   1466   1467   1468   1500
  4933   2   1469   1468   1467   1499
  4934   7   1499   1467   1468   1500
  4935   1   1467   1468   1469   1464
  4936   8   1467   1468   1469   1457
  4937   2   1464   1469   1468   1500
  4938   9   1500   1468   1469   1457
  4939  10   1473   1474   1470   1466
  4940  10    395   1474   1470   1466
  4941  10   1473   1474   1470   1477
  4942  10    395   1474   1470   1477
  4943  10   1473   1474   1470   1488
  4944  10    395   1474   1470   1488
  4945  10   1478   1477   1470   1466
  4946  10    402   1477   1470   1466
  4947  10   1478   1477   1470   1474
  4948  10    402   1477   1470   1474
  4949  10   1478   1477   1470   1488
  4950  10    402   1477   1470   1488
  4951  10   1483   1488   1470   1466
  4952  10   1487   1488   1470   1466
  4953  10   1483   1488   1470   1474
  4954  10   1487   1488   1470   1474
  4955  10   1483   1488   1470   1477
  4956  10   1487   1488   1470   1477
  4957   1    392   1471   1476   1475
  4958   2    392   1471   1476   1504
  4959   3   1475   1476   1471   1514
  4960   4   1504   1476   1471   1514
  4961   5    392   1471   1514   1513
  4962   6    392   1471   1514   1517
  4963   6    392   1471   1514   1518
  4964   5   1476   1471   1514   1513
  4965   6   1476   1471   1514   1517
  4966   6   1476   1471   1514   1518
  4967   1    391   1472   1473   1474
  4968   2    391   1472   1473   1502
  4969   2   1474   1473   1472   1501
  4970   7   1501   1472   1473   1502
  4971   8   1472   1473   1474   1470
  4972   1   1472   1473   1474    395
  4973   9   1502   1473   1474   1470
  4974   2    395   1474   1473   1502
  4975   1    394   1475   1476   1471
  4976   2    394   1475   1476   1504
  4977   2   1471   1476   1475   1503
  4978   7   1503   1475   1476   1504
  4979   8   1479   1478   1477   1470
  4980   9   1505   1478   1477   1470
  4981   1    402   1477   1478   1479
  4982   2    402   1477   1478   1505
  4983   1   1477   1478   1479    400
  4984   2   1477   1478   1479   2046
  4985   2    400   1479   1478   1505
  4986   7   1505   1478   1479   2046
  4987   1    399   1480   1481   1482
  4988   2    399   1480   1481   1507
  4989   3   1482   1481   1480   2138
  4990   4   1507   1481   1480   2138
  4991   5    399   1480   2138   2137
  4992   6    399   1480   2138   1601
  4993   6    399   1480   2138   1062
  4994   5   1481   1480   2138   2137
  4995   6   1481   1480   2138   1601
  4996   6   1481   1480   2138   1062
  4997   1   1480   1481   1482    397
  4998   2   1480   1481   1482   1508
  4999   2    397   1482   1481   1507
  5000   7   1507   1481   1482   1508
  5001   1   1488   1483   1484   1485
  5002   2   1488   1483   1484   1510
  5003   2   1485   1484   1483   1509
  5004   7   1509   1483   1484   1510
  5005   8   1484   1483   1488   1470
  5006   1   1484   1483   1488   1487
  5007   9   1509   1483   1488   1470
  5008   2   1487   1488   1483   1509
  5009   1   1483   1484   1485   1486
  5010   3   1483   1484   1485   1543
  5011   2   1486   1485   1484   1510
  5012   4   1510   1484   1485   1543
  5013   1   1484   1485   1486   1487
  5014   2   1484   1485   1486   1511
  5015   3   1487   1486   1485   1543
  5016   4   1511   1486   1485   1543
  5017   5   1484   1485   1543   1544
  5018   6   1484   1485   1543   1545
  5019   6   1484   1485   1543   1546
  5020   5   1486   1485   1543   1544
  5021   6   1486   1485   1543   1545
  5022   6   1486   1485   1543   1546
  5023   1   1485   1486   1487   1488
  5024   2   1485   1486   1487   1512
  5025   2   1488   1487   1486   1511
  5026   7   1511   1486   1487   1512
  5027   8   1486   1487   1488   1470
  5028   1   1486   1487   1488   1483
  5029   9   1512   1487   1488   1470
  5030   2   1483   1488   1487   1512
  5031  11   1399   1513   1514   1471
  5032  12   1399   1513   1514   1517
  5033  12   1399   1513   1514   1518
  5034  12   1471   1514   1513   1515
  5035  13   1515   1513   1514   1517
  5036  13   1515   1513   1514   1518
  5037  12   1471   1514   1513   1516
  5038  13   1516   1513   1514   1517
  5039  13   1516   1513   1514   1518
  5040  11    381   1519   1520   1297
  5041  12    381   1519   1520   1523
  5042  12    381   1519   1520   1524
  5043  12   1297   1520   1519   1521
  5044  13   1521   1519   1520   1523
  5045  13   1521   1519   1520   1524
  5046  12   1297   1520   1519   1522
  5047  13   1522   1519   1520   1523
  5048  13   1522   1519   1520   1524
  5049   5   1316   1857   1525   1526
  5050   5   1858   1857   1525   1526
  5051   6   1316   1857   1525   1527
  5052   6   1858   1857   1525   1527
  5053   6   1316   1857   1525   1528
  5054   6   1858   1857   1525   1528
  5055  11   1857   1525   1526   1441
  5056  12   1857   1525   1526   1529
  5057  12   1857   1525   1526   1530
  5058  12   1441   1526   1525   1527
  5059  13   1527   1525   1526   1529
  5060  13   1527   1525   1526   1530
  5061  12   1441   1526   1525   1528
  5062  13   1528   1525   1526   1529
  5063  13   1528   1525   1526   1530
  5064  11   1341   1531   1532   1383
  5065  12   1341   1531   1532   1535
  5066  12   1341   1531   1532   1536
  5067  12   1383   1532   1531   1533
  5068  13   1533   1531   1532   1535
  5069  13   1533   1531   1532   1536
  5070  12   1383   1532   1531   1534
  5071  13   1534   1531   1532   1535
  5072  13   1534   1531   1532   1536
  5073  11   1408   1537   1538   1264
  5074  12   1408   1537   1538   2081
  5075  12   1408   1537   1538   1542
  5076  12   1264   1538   1537   1539
  5077  13   1539   1537   1538   2081
  5078  13   1539   1537   1538   1542
  5079  12   1264   1538   1537   1540
  5080  13   1540   1537   1538   2081
  5081  13   1540   1537   1538   1542
  5082  11   1485   1543   1544   1239
  5083  12   1485   1543   1544   1547
  5084  12   1485   1543   1544   1548
  5085  12   1239   1544   1543   1545
  5086  13   1545   1543   1544   1547
  5087  13   1545   1543   1544   1548
  5088  12   1239   1544   1543   1546
  5089  13   1546   1543   1544   1547
  5090  13   1546   1543   1544   1548
  5091  11   1255   1549   1550   1327
  5092  12   1255   1549   1550   1553
  5093  12   1255   1549   1550   1554
  5094  12   1327   1550   1549   1551
  5095  13   1551   1549   1550   1553
  5096  13   1551   1549   1550   1554
  5097  12   1327   1550   1549   1552
  5098  13   1552   1549   1550   1553
  5099  13   1552   1549   1550   1554
  5100  11   1389   1555   1556   1153
  5101  12   1389   1555   1556   1559
  5102  12   1389   1555   1556   1560
  5103  12   1153   1556   1555   1557
  5104  13   1557   1555   1556   1559
  5105  13   1557   1555   1556   1560
  5106  12   1153   1556   1555   1558
  5107  13   1558   1555   1556   1559
  5108  13   1558   1555   1556   1560
  5109  11   1173   1561   1562   1369
  5110  12   1173   1561   1562   1565
  5111  12   1173   1561   1562   1566
  5112  12   1369   1562   1561   1563
  5113  13   1563   1561   1562   1565
  5114  13   1563   1561   1562   1566
  5115  12   1369   1562   1561   1564
  5116  13   1564   1561   1562   1565
  5117  13   1564   1561   1562   1566
  5118  11   1192   1567   1568   1336
  5119  12   1192   1567   1568   1571
  5120  12   1192   1567   1568   1572
  5121  12   1336   1568   1567   1569
  5122  13   1569   1567   1568   1571
  5123  13   1569   1567   1568   1572
  5124  12   1336   1568   1567   1570
  5125  13   1570   1567   1568   1571
  5126  13   1570   1567   1568   1572
  5127  11   1269   1573   1574   1167
  5128  12   1269   1573   1574   1577
  5129  12   1269   1573   1574   1578
  5130  12   1167   1574   1573   1575
  5131  13   1575   1573   1574   1577
  5132  13   1575   1573   1574   1578
  5133  12   1167   1574   1573   1576
  5134  13   1576   1573   1574   1577
  5135  13   1576   1573   1574   1578
  5136  11   1197   1579   1580    375
  5137  12   1197   1579   1580   1583
  5138  12   1197   1579   1580    504
  5139  12    375   1580   1579   1581
  5140  13   1581   1579   1580   1583
  5141  13   1581   1579   1580    504
  5142  12    375   1580   1579   1582
  5143  13   1582   1579   1580   1583
  5144  13   1582   1579   1580    504
  5145  11   1245   1585   1586   1081
  5146  12   1245   1585   1586   1589
  5147  12   1245   1585   1586   1590
  5148  12   1081   1586   1585   1587
  5149  13   1587   1585   1586   1589
  5150  13   1587   1585   1586   1590
  5151  12   1081   1586   1585   1588
  5152  13   1588   1585   1586   1589
  5153  13   1588   1585   1586   1590
  5154  11   1101   1591   1592   1225
  5155  12   1101   1591   1592   1595
  5156  12   1101   1591   1592   1596
  5157  12   1225   1592   1591   1593
  5158  13   1593   1591   1592   1595
  5159  13   1593   1591   1592   1596
  5160  12   1225   1592   1591   1594
  5161  13   1594   1591   1592   1595
  5162  13   1594   1591   1592   1596
  5163  11     40   1597   1598   2020
  5164  12     40   1597   1598   2141
  5165  12     40   1597   1598    522
  5166  12   2020   1598   1597   1599
  5167  13   1599   1597   1598   2141
  5168  13   1599   1597   1598    522
  5169  12   2020   1598   1597   2140
  5170  13   2140   1597   1598   2141
  5171  13   2140   1597   1598    522
  5172   5    939   2020   1598   1597
  5173   5   2021   2020   1598   1597
  5174   6    939   2020   1598   2141
  5175   6   2021   2020   1598   2141
  5176   6    939   2020   1598    522
  5177   6   2021   2020   1598    522
  5178  11   1413   1603   1604   1095
  5179  12   1413   1603   1604   1607
  5180  12   1413   1603   1604   1608
  5181  12   1095   1604   1603   1605
  5182  13   1605   1603   1604   1607
  5183  13   1605   1603   1604   1608
  5184  12   1095   1604   1603   1606
  5185  13   1606   1603   1604   1607
  5186  13   1606   1603   1604   1608
  5187  11   1125   1609   2150   1851
  5188  12   1125   1609   2150   2153
  5189  12   1125   1609   2150   2154
  5190  12   1851   2150   1609   1611
  5191  13   1611   1609   2150   2153
  5192  13   1611   1609   2150   2154
  5193  12   1851   2150   1609   1612
  5194  13   1612   1609   2150   2153
  5195  13   1612   1609   2150   2154
  5196  11   1311   1610   2149   1665
  5197  12   1311   1610   2149   2151
  5198  12   1311   1610   2149   2152
  5199  12   1665   2149   1610   1613
  5200  13   1613   1610   2149   2151
  5201  13   1613   1610   2149   2152
  5202  12   1665   2149   1610   1614
  5203  13   1614   1610   2149   2151
  5204  13   1614   1610   2149   2152
  5205  11   1111   1615   1616   1183
  5206  12   1111   1615   1616   1619
  5207  12   1111   1615   1616   1620
  5208  12   1183   1616   1615   1617
  5209  13   1617   1615   1616   1619
  5210  13   1617   1615   1616   1620
  5211  12   1183   1616   1615   1618
  5212  13   1618   1615   1616   1619
  5213  13   1618   1615   1616   1620
  5214   1   1626   1621   1622   1623
  5215   2   1626   1621   1622   1627
  5216   3   1623   1622   1621   2126
  5217   4   1627   1622   1621   2126
  5218   1   1622   1621   1626   1625
  5219   2   1622   1621   1626   1630
  5220   3   1625   1626   1621   2126
  5221   4   1630   1626   1621   2126
  5222   5   1622   1621   2126   2125
  5223   6   1622   1621   2126   2129
  5224   6   1622   1621   2126   2130
  5225   5   1626   1621   2126   2125
  5226   6   1626   1621   2126   2129
  5227   6   1626   1621   2126   2130
  5228   1   1621   1622   1623   1624
  5229   2   1621   1622   1623   1628
  5230   2   1624   1623   1622   1627
  5231   7   1627   1622   1623   1628
  5232   1   1622   1623   1624   1625
  5233   8   1622   1623   1624   1097
  5234   2   1625   1624   1623   1628
  5235   9   1628   1623   1624   1097
  5236   1   1623   1624   1625   1626
  5237   2   1623   1624   1625   1089
  5238   8   1626   1625   1624   1097
  5239   9   1089   1625   1624   1097
  5240   1   1624   1625   1626   1621
  5241   2   1624   1625   1626   1630
  5242   2   1621   1626   1625   1089
  5243   7   1089   1625   1626   1630
  5244   1   1636   1631   1632   1633
  5245   8   1636   1631   1632   1637
  5246   2   1633   1632   1631   1669
  5247   9   1669   1631   1632   1637
  5248   1   1632   1631   1636   1635
  5249   2   1632   1631   1636   1672
  5250   2   1635   1636   1631   1669
  5251   7   1669   1631   1636   1672
  5252   1   1631   1632   1633   1634
  5253   2   1631   1632   1633   1670
  5254   8   1634   1633   1632   1637
  5255   9   1670   1633   1632   1637
  5256  10   1631   1632   1637   1084
  5257  10   1631   1632   1637   1638
  5258  10   1631   1632   1637   1649
  5259  10   1633   1632   1637   1084
  5260  10   1633   1632   1637   1638
  5261  10   1633   1632   1637   1649
  5262   1   1632   1633   1634   1635
  5263   2   1632   1633   1634   1671
  5264   2   1635   1634   1633   1670
  5265   7   1670   1633   1634   1671
  5266   1   1633   1634   1635   1636
  5267   3   1633   1634   1635   2144
  5268   2   1636   1635   1634   1671
  5269   4   1671   1634   1635   2144
  5270   1   1634   1635   1636   1631
  5271   2   1634   1635   1636   1672
  5272   3   1631   1636   1635   2144
  5273   4   1672   1636   1635   2144
  5274   5   1634   1635   2144   2143
  5275   6   1634   1635   2144   2147
  5276   6   1634   1635   2144   2148
  5277   5   1636   1635   2144   2143
  5278   6   1636   1635   2144   2147
  5279   6   1636   1635   2144   2148
  5280  10   1099   1638   1637   1084
  5281  10   1643   1638   1637   1084
  5282  10   1099   1638   1637   1632
  5283  10   1643   1638   1637   1632
  5284  10   1099   1638   1637   1649
  5285  10   1643   1638   1637   1649
  5286  10   1108   1649   1637   1084
  5287  10   1644   1649   1637   1084
  5288  10   1108   1649   1637   1632
  5289  10   1644   1649   1637   1632
  5290  10   1108   1649   1637   1638
  5291  10   1644   1649   1637   1638
  5292   8   1642   1643   1638   1637
  5293   9   1676   1643   1638   1637
  5294   1   1099   1638   1643   1642
  5295   2   1099   1638   1643   1676
  5296   1   1099   1640   1641   1642
  5297   3   1099   1640   1641   2131
  5298   2   1642   1641   1640   1134
  5299   4   1134   1640   1641   2131
  5300   1   1640   1641   1642   1643
  5301   2   1640   1641   1642   1675
  5302   3   1643   1642   1641   2131
  5303   4   1675   1642   1641   2131
  5304   5   1640   1641   2131   2132
  5305   6   1640   1641   2131   2133
  5306   6   1640   1641   2131   2134
  5307   5   1642   1641   2131   2132
  5308   6   1642   1641   2131   2133
  5309   6   1642   1641   2131   2134
  5310   1   1641   1642   1643   1638
  5311   2   1641   1642   1643   1676
  5312   2   1638   1643   1642   1675
  5313   7   1675   1642   1643   1676
  5314   1   1649   1644   1645   1646
  5315   2   1649   1644   1645   1678
  5316   2   1646   1645   1644   1677
  5317   7   1677   1644   1645   1678
  5318   1   1645   1644   1649   1108
  5319   8   1645   1644   1649   1637
  5320   2   1108   1649   1644   1677
  5321   9   1677   1644   1649   1637
  5322   1   1644   1645   1646   1107
  5323   8   1644   1645   1646   1650
  5324   2   1107   1646   1645   1678
  5325   9   1678   1645   1646   1650
  5326  10   1645   1646   1650   1654
  5327  10   1645   1646   1650   1657
  5328  10   1645   1646   1650   1668
  5329  10   1107   1646   1650   1654
  5330  10   1107   1646   1650   1657
  5331  10   1107   1646   1650   1668
  5332   1   1106   1647   1648   1109
  5333   2   1106   1647   1648   1680
  5334   2   1109   1648   1647   1679
  5335   7   1679   1647   1648   1680
  5336  10   1653   1654   1650   1646
  5337  10   1655   1654   1650   1646
  5338  10   1653   1654   1650   1657
  5339  10   1655   1654   1650   1657
  5340  10   1653   1654   1650   1668
  5341  10   1655   1654   1650   1668
  5342  10   1118   1657   1650   1646
  5343  10   1662   1657   1650   1646
  5344  10   1118   1657   1650   1654
  5345  10   1662   1657   1650   1654
  5346  10   1118   1657   1650   1668
  5347  10   1662   1657   1650   1668
  5348  10   1667   1668   1650   1646
  5349  10   1663   1668   1650   1646
  5350  10   1667   1668   1650   1654
  5351  10   1663   1668   1650   1654
  5352  10   1667   1668   1650   1657
  5353  10   1663   1668   1650   1657
  5354   1   1656   1651   1652   1653
  5355   2   1656   1651   1652   1681
  5356   3   1653   1652   1651   2155
  5357   4   1681   1652   1651   2155
  5358   1   1652   1651   1656   1655
  5359   2   1652   1651   1656   1684
  5360   3   1655   1656   1651   2155
  5361   4   1684   1656   1651   2155
  5362   5   1652   1651   2155   2156
  5363   6   1652   1651   2155   2157
  5364   6   1652   1651   2155   2158
  5365   5   1656   1651   2155   2156
  5366   6   1656   1651   2155   2157
  5367   6   1656   1651   2155   2158
  5368   1   1651   1652   1653   1654
  5369   2   1651   1652   1653   1682
  5370   2   1654   1653   1652   1681
  5371   7   1681   1652   1653   1682
  5372   8   1652   1653   1654   1650
  5373   1   1652   1653   1654   1655
  5374   9   1682   1653   1654   1650
  5375   2   1655   1654   1653   1682
  5376   1   1653   1654   1655   1656
  5377   2   1653   1654   1655   1683
  5378   8   1656   1655   1654   1650
  5379   9   1683   1655   1654   1650
  5380   1   1654   1655   1656   1651
  5381   2   1654   1655   1656   1684
  5382   2   1651   1656   1655   1683
  5383   7   1683   1655   1656   1684
  5384   8   1661   1662   1657   1650
  5385   9   1688   1662   1657   1650
  5386   1   1118   1657   1662   1661
  5387   2   1118   1657   1662   1688
  5388   1   1117   1658   1659   1120
  5389   2   1117   1658   1659    606
  5390   2   1120   1659   1658   1685
  5391   7   1685   1658   1659    606
  5392   1   1119   1660   1661   1662
  5393   2   1119   1660   1661   1687
  5394   3   1662   1661   1660   1057
  5395   4   1687   1661   1660   1057
  5396   1   1660   1661   1662   1657
  5397   2   1660   1661   1662   1688
  5398   2   1657   1662   1661   1687
  5399   7   1687   1661   1662   1688
  5400   1   1124   1663   1668   1667
  5401   8   1124   1663   1668   1650
  5402   2   1667   1668   1663   1689
  5403   9   1689   1663   1668   1650
  5404   1   1123   1664   1665   1666
  5405   3   1123   1664   1665   2149
  5406   2   1666   1665   1664   1690
  5407   4   1690   1664   1665   2149
  5408   1   1664   1665   1666   1127
  5409   2   1664   1665   1666   1691
  5410   3   1127   1666   1665   2149
  5411   4   1691   1666   1665   2149
  5412   5   1664   1665   2149   1610
  5413   6   1664   1665   2149   2151
  5414   6   1664   1665   2149   2152
  5415   5   1666   1665   2149   1610
  5416   6   1666   1665   2149   2151
  5417   6   1666   1665   2149   2152
  5418   8   1126   1667   1668   1650
  5419   1   1126   1667   1668   1663
  5420   9   1692   1667   1668   1650
  5421   2   1663   1668   1667   1692
  5422   1   1698   1693   1694   1695
  5423   2   1698   1693   1694   1699
  5424   3   1695   1694   1693   2096
  5425   4   1699   1694   1693   2096
  5426   1   1694   1693   1698    617
  5427   2   1694   1693   1698   1702
  5428   3    617   1698   1693   2096
  5429   4   1702   1698   1693   2096
  5430   5   1694   1693   2096   2095
  5431   6   1694   1693   2096   2099
  5432   6   1694   1693   2096   2100
  5433   5   1698   1693   2096   2095
  5434   6   1698   1693   2096   2099
  5435   6   1698   1693   2096   2100
  5436   1   1693   1694   1695    616
  5437   2   1693   1694   1695   1700
  5438   2    616   1695   1694   1699
  5439   7   1699   1694   1695   1700
  5440   1    615   1696   1697    618
  5441   2    615   1696   1697   1701
  5442   8    618   1697   1696   1709
  5443   9   1701   1697   1696   1709
  5444  10    615   1696   1709   1704
  5445  10    615   1696   1709   1710
  5446  10    615   1696   1709   1721
  5447  10   1697   1696   1709   1704
  5448  10   1697   1696   1709   1710
  5449  10   1697   1696   1709   1721
  5450   1   1708   1703   1704   1705
  5451   8   1708   1703   1704   1709
  5452   2   1705   1704   1703   1741
  5453   9   1741   1703   1704   1709
  5454   1   1704   1703   1708   1707
  5455   2   1704   1703   1708   1744
  5456   2   1707   1708   1703   1741
  5457   7   1741   1703   1708   1744
  5458   1   1703   1704   1705   1706
  5459   2   1703   1704   1705   1742
  5460   8   1706   1705   1704   1709
  5461   9   1742   1705   1704   1709
  5462  10   1703   1704   1709   1696
  5463  10   1703   1704   1709   1710
  5464  10   1703   1704   1709   1721
  5465  10   1705   1704   1709   1696
  5466  10   1705   1704   1709   1710
  5467  10   1705   1704   1709   1721
  5468   1   1704   1705   1706   1707
  5469   2   1704   1705   1706   1743
  5470   2   1707   1706   1705   1742
  5471   7   1742   1705   1706   1743
  5472   1   1705   1706   1707   1708
  5473   3   1705   1706   1707   2114
  5474   2   1708   1707   1706   1743
  5475   4   1743   1706   1707   2114
  5476   1   1706   1707   1708   1703
  5477   2   1706   1707   1708   1744
  5478   3   1703   1708   1707   2114
  5479   4   1744   1708   1707   2114
  5480   5   1706   1707   2114   2113
  5481   6   1706   1707   2114   2117
  5482   6   1706   1707   2114   2118
  5483   5   1708   1707   2114   2113
  5484   6   1708   1707   2114   2117
  5485   6   1708   1707   2114   2118
  5486  10   1711   1710   1709   1696
  5487  10   1715   1710   1709   1696
  5488  10   1711   1710   1709   1704
  5489  10   1715   1710   1709   1704
  5490  10   1711   1710   1709   1721
  5491  10   1715   1710   1709   1721
  5492  10   1716   1721   1709   1696
  5493  10    640   1721   1709   1696
  5494  10   1716   1721   1709   1704
  5495  10    640   1721   1709   1704
  5496  10   1716   1721   1709   1710
  5497  10    640   1721   1709   1710
  5498   8   1712   1711   1710   1709
  5499   9   1745   1711   1710   1709
  5500   1   1715   1710   1711   1712
  5501   2   1715   1710   1711   1745
  5502   8   1714   1715   1710   1709
  5503   9   1748   1715   1710   1709
  5504   1   1711   1710   1715   1714
  5505   2   1711   1710   1715   1748
  5506   1   1710   1711   1712   1713
  5507   2   1710   1711   1712   1746
  5508   2   1713   1712   1711   1745
  5509   7   1745   1711   1712   1746
  5510   1   1711   1712   1713   1714
  5511   3   1711   1712   1713   2101
  5512   2   1714   1713   1712   1746
  5513   4   1746   1712   1713   2101
  5514   1   1712   1713   1714   1715
  5515   2   1712   1713   1714   1747
  5516   3   1715   1714   1713   2101
  5517   4   1747   1714   1713   2101
  5518   5   1712   1713   2101   2102
  5519   6   1712   1713   2101   2103
  5520   6   1712   1713   2101   2104
  5521   5   1714   1713   2101   2102
  5522   6   1714   1713   2101   2103
  5523   6   1714   1713   2101   2104
  5524   1   1713   1714   1715   1710
  5525   2   1713   1714   1715   1748
  5526   2   1710   1715   1714   1747
  5527   7   1747   1714   1715   1748
  5528   1   1721   1716   1717    638
  5529   2   1721   1716   1717   1750
  5530   2    638   1717   1716   1749
  5531   7   1749   1716   1717   1750
  5532   1   1717   1716   1721    640
  5533   8   1717   1716   1721   1709
  5534   2    640   1721   1716   1749
  5535   9   1749   1716   1721   1709
  5536   1    637   1718   1719   1720
  5537   2    637   1718   1719   1751
  5538   8   1720   1719   1718    642
  5539   9   1751   1719   1718    642
  5540   1   1718   1719   1720    641
  5541   2   1718   1719   1720   1752
  5542   2    641   1720   1719   1751
  5543   7   1751   1719   1720   1752
  5544  10   1725   1726   1722    638
  5545  10   1727   1726   1722    638
  5546  10   1725   1726   1722    649
  5547  10   1727   1726   1722    649
  5548  10   1725   1726   1722    660
  5549  10   1727   1726   1722    660
  5550   1   1728   1723   1724   1725
  5551   2   1728   1723   1724   1753
  5552   3   1725   1724   1723   2156
  5553   4   1753   1724   1723   2156
  5554   1   1724   1723   1728   1727
  5555   2   1724   1723   1728   1756
  5556   3   1727   1728   1723   2156
  5557   4   1756   1728   1723   2156
  5558   5   1724   1723   2156   2155
  5559   6   1724   1723   2156   2159
  5560   6   1724   1723   2156   2160
  5561   5   1728   1723   2156   2155
  5562   6   1728   1723   2156   2159
  5563   6   1728   1723   2156   2160
  5564   1   1723   1724   1725   1726
  5565   2   1723   1724   1725   1754
  5566   2   1726   1725   1724   1753
  5567   7   1753   1724   1725   1754
  5568   8   1724   1725   1726   1722
  5569   1   1724   1725   1726   1727
  5570   9   1754   1725   1726   1722
  5571   2   1727   1726   1725   1754
  5572   1   1725   1726   1727   1728
  5573   2   1725   1726   1727   1755
  5574   8   1728   1727   1726   1722
  5575   9   1755   1727   1726   1722
  5576   1   1726   1727   1728   1723
  5577   2   1726   1727   1728   1756
  5578   2   1723   1728   1727   1755
  5579   7   1755   1727   1728   1756
  5580   8   1191   1730   1729    642
  5581   9   1757   1730   1729    642
  5582   1    654   1729   1730   1191
  5583   2    654   1729   1730   1757
  5584   1   1190   1731   1732   1733
  5585   3   1190   1731   1732   2107
  5586   2   1733   1732   1731   1758
  5587   4   1758   1731   1732   2107
  5588   1   1731   1732   1733    114
  5589   2   1731   1732   1733    679
  5590   3    114   1733   1732   2107
  5591   4    679   1733   1732   2107
  5592   5   1731   1732   2107   2108
  5593   6   1731   1732   2107   2109
  5594   6   1731   1732   2107   2110
  5595   5   1733   1732   2107   2108
  5596   6   1733   1732   2107   2109
  5597   6   1733   1732   2107   2110
  5598   1    655   1736   1737   1738
  5599   3    655   1736   1737   2119
  5600   2   1738   1737   1736    682
  5601   4    682   1736   1737   2119
  5602   1   1736   1737   1738   1739
  5603   2   1736   1737   1738   1763
  5604   3   1739   1738   1737   2119
  5605   4   1763   1738   1737   2119
  5606   5   1736   1737   2119   2120
  5607   6   1736   1737   2119   2121
  5608   6   1736   1737   2119   2122
  5609   5   1738   1737   2119   2120
  5610   6   1738   1737   2119   2121
  5611   6   1738   1737   2119   2122
  5612   1   1737   1738   1739   1740
  5613   2   1737   1738   1739   1764
  5614   2   1740   1739   1738   1763
  5615   7   1763   1738   1739   1764
  5616   1   1738   1739   1740    655
  5617   8   1738   1739   1740    642
  5618   2    655   1740   1739   1764
  5619   9   1764   1739   1740    642
  5620   1   1770   1765   1766   1767
  5621   2   1770   1765   1766   1771
  5622   3   1767   1766   1765   2132
  5623   4   1771   1766   1765   2132
  5624   1   1766   1765   1770   1769
  5625   2   1766   1765   1770   1774
  5626   3   1769   1770   1765   2132
  5627   4   1774   1770   1765   2132
  5628   5   1766   1765   2132   2131
  5629   6   1766   1765   2132   2135
  5630   6   1766   1765   2132   2136
  5631   5   1770   1765   2132   2131
  5632   6   1770   1765   2132   2135
  5633   6   1770   1765   2132   2136
  5634   1   1765   1766   1767   1768
  5635   2   1765   1766   1767   1772
  5636   2   1768   1767   1766   1771
  5637   7   1771   1766   1767   1772
  5638   1   1766   1767   1768   1769
  5639   8   1766   1767   1768   1781
  5640   2   1769   1768   1767   1772
  5641   9   1772   1767   1768   1781
  5642   1   1767   1768   1769   1770
  5643   2   1767   1768   1769   1773
  5644   8   1770   1769   1768   1781
  5645   9   1773   1769   1768   1781
  5646  10   1767   1768   1781   1776
  5647  10   1767   1768   1781   1782
  5648  10   1767   1768   1781   1793
  5649  10   1769   1768   1781   1776
  5650  10   1769   1768   1781   1782
  5651  10   1769   1768   1781   1793
  5652   1   1768   1769   1770   1765
  5653   2   1768   1769   1770   1774
  5654   2   1765   1770   1769   1773
  5655   7   1773   1769   1770   1774
  5656   1   1780   1775   1776   1777
  5657   8   1780   1775   1776   1781
  5658   2   1777   1776   1775   1813
  5659   9   1813   1775   1776   1781
  5660   1   1776   1775   1780   1779
  5661   2   1776   1775   1780   1816
  5662   2   1779   1780   1775   1813
  5663   7   1813   1775   1780   1816
  5664   1   1775   1776   1777   1778
  5665   2   1775   1776   1777   1814
  5666   8   1778   1777   1776   1781
  5667   9   1814   1777   1776   1781
  5668  10   1775   1776   1781   1768
  5669  10   1775   1776   1781   1782
  5670  10   1775   1776   1781   1793
  5671  10   1777   1776   1781   1768
  5672  10   1777   1776   1781   1782
  5673  10   1777   1776   1781   1793
  5674   1   1776   1777   1778   1779
  5675   2   1776   1777   1778   1815
  5676   2   1779   1778   1777   1814
  5677   7   1814   1777   1778   1815
  5678   1   1777   1778   1779   1780
  5679   3   1777   1778   1779   2084
  5680   2   1780   1779   1778   1815
  5681   4   1815   1778   1779   2084
  5682   1   1778   1779   1780   1775
  5683   2   1778   1779   1780   1816
  5684   3   1775   1780   1779   2084
  5685   4   1816   1780   1779   2084
  5686   5   1778   1779   2084   2083
  5687   6   1778   1779   2084   2087
  5688   6   1778   1779   2084   2088
  5689   5   1780   1779   2084   2083
  5690   6   1780   1779   2084   2087
  5691   6   1780   1779   2084   2088
  5692  10   1783   1782   1781   1768
  5693  10   1787   1782   1781   1768
  5694  10   1783   1782   1781   1776
  5695  10   1787   1782   1781   1776
  5696  10   1783   1782   1781   1793
  5697  10   1787   1782   1781   1793
  5698  10   1788   1793   1781   1768
  5699  10   1792   1793   1781   1768
  5700  10   1788   1793   1781   1776
  5701  10   1792   1793   1781   1776
  5702  10   1788   1793   1781   1782
  5703  10   1792   1793   1781   1782
  5704   8   1784   1783   1782   1781
  5705   9   1817   1783   1782   1781
  5706   1   1787   1782   1783   1784
  5707   2   1787   1782   1783   1817
  5708   8   1786   1787   1782   1781
  5709   9   1820   1787   1782   1781
  5710   1   1783   1782   1787   1786
  5711   2   1783   1782   1787   1820
  5712   1   1782   1783   1784   1785
  5713   2   1782   1783   1784   1818
  5714   2   1785   1784   1783   1817
  5715   7   1817   1783   1784   1818
  5716   1   1783   1784   1785   1786
  5717   3   1783   1784   1785   2125
  5718   2   1786   1785   1784   1818
  5719   4   1818   1784   1785   2125
  5720   1   1784   1785   1786   1787
  5721   2   1784   1785   1786   1819
  5722   3   1787   1786   1785   2125
  5723   4   1819   1786   1785   2125
  5724   5   1784   1785   2125   2126
  5725   6   1784   1785   2125   2127
  5726   6   1784   1785   2125   2128
  5727   5   1786   1785   2125   2126
  5728   6   1786   1785   2125   2127
  5729   6   1786   1785   2125   2128
  5730   1   1785   1786   1787   1782
  5731   2   1785   1786   1787   1820
  5732   2   1782   1787   1786   1819
  5733   7   1819   1786   1787   1820
  5734   1   1793   1788   1789   1790
  5735   2   1793   1788   1789   1822
  5736   2   1790   1789   1788   1821
  5737   7   1821   1788   1789   1822
  5738   1   1789   1788   1793   1792
  5739   8   1789   1788   1793   1781
  5740   2   1792   1793   1788   1821
  5741   9   1821   1788   1793   1781
  5742   1   1788   1789   1790   1791
  5743   8   1788   1789   1790   1794
  5744   2   1791   1790   1789   1822
  5745   9   1822   1789   1790   1794
  5746   1   1789   1790   1791   1792
  5747   2   1789   1790   1791   1823
  5748   8   1792   1791   1790   1794
  5749   9   1823   1791   1790   1794
  5750  10   1789   1790   1794   1798
  5751  10   1789   1790   1794   1801
  5752  10   1789   1790   1794   1812
  5753  10   1791   1790   1794   1798
  5754  10   1791   1790   1794   1801
  5755  10   1791   1790   1794   1812
  5756   1   1790   1791   1792   1793
  5757   2   1790   1791   1792   1824
  5758   2   1793   1792   1791   1823
  5759   7   1823   1791   1792   1824
  5760   1   1791   1792   1793   1788
  5761   8   1791   1792   1793   1781
  5762   2   1788   1793   1792   1824
  5763   9   1824   1792   1793   1781
  5764  10   1797   1798   1794   1790
  5765  10   1799   1798   1794   1790
  5766  10   1797   1798   1794   1801
  5767  10   1799   1798   1794   1801
  5768  10   1797   1798   1794   1812
  5769  10   1799   1798   1794   1812
  5770  10   1802   1801   1794   1790
  5771  10   1806   1801   1794   1790
  5772  10   1802   1801   1794   1798
  5773  10   1806   1801   1794   1798
  5774  10   1802   1801   1794   1812
  5775  10   1806   1801   1794   1812
  5776  10   1807   1812   1794   1790
  5777  10   1811   1812   1794   1790
  5778  10   1807   1812   1794   1798
  5779  10   1811   1812   1794   1798
  5780  10   1807   1812   1794   1801
  5781  10   1811   1812   1794   1801
  5782   1   1800   1795   1796   1797
  5783   2   1800   1795   1796   1825
  5784   3   1797   1796   1795   2089
  5785   4   1825   1796   1795   2089
  5786   1   1796   1795   1800   1799
  5787   2   1796   1795   1800   1828
  5788   3   1799   1800   1795   2089
  5789   4   1828   1800   1795   2089
  5790   5   1796   1795   2089   2090
  5791   6   1796   1795   2089   2091
  5792   6   1796   1795   2089   2092
  5793   5   1800   1795   2089   2090
  5794   6   1800   1795   2089   2091
  5795   6   1800   1795   2089   2092
  5796   1   1795   1796   1797   1798
  5797   2   1795   1796   1797   1826
  5798   2   1798   1797   1796   1825
  5799   7   1825   1796   1797   1826
  5800   8   1796   1797   1798   1794
  5801   1   1796   1797   1798   1799
  5802   9   1826   1797   1798   1794
  5803   2   1799   1798   1797   1826
  5804   1   1797   1798   1799   1800
  5805   2   1797   1798   1799   1827
  5806   8   1800   1799   1798   1794
  5807   9   1827   1799   1798   1794
  5808   1   1798   1799   1800   1795
  5809   2   1798   1799   1800   1828
  5810   2   1795   1800   1799   1827
  5811   7   1827   1799   1800   1828
  5812   8   1803   1802   1801   1794
  5813   9   1829   1802   1801   1794
  5814   1   1806   1801   1802   1803
  5815   2   1806   1801   1802   1829
  5816   8   1805   1806   1801   1794
  5817   9   1832   1806   1801   1794
  5818   1   1802   1801   1806   1805
  5819   2   1802   1801   1806   1832
  5820   1   1801   1802   1803   1804
  5821   2   1801   1802   1803   1830
  5822   2   1804   1803   1802   1829
  5823   7   1829   1802   1803   1830
  5824   1   1802   1803   1804   1805
  5825   3   1802   1803   1804   2078
  5826   2   1805   1804   1803   1830
  5827   4   1830   1803   1804   2078
  5828   1   1803   1804   1805   1806
  5829   2   1803   1804   1805   1831
  5830   3   1806   1805   1804   2078
  5831   4   1831   1805   1804   2078
  5832   5   1803   1804   2078   2077
  5833   6   1803   1804   2078   1541
  5834   6   1803   1804   2078   2082
  5835   5   1805   1804   2078   2077
  5836   6   1805   1804   2078   1541
  5837   6   1805   1804   2078   2082
  5838   1   1804   1805   1806   1801
  5839   2   1804   1805   1806   1832
  5840   2   1801   1806   1805   1831
  5841   7   1831   1805   1806   1832
  5842   1   1812   1807   1808   1809
  5843   2   1812   1807   1808   1834
  5844   2   1809   1808   1807   1833
  5845   7   1833   1807   1808   1834
  5846   1   1808   1807   1812   1811
  5847   8   1808   1807   1812   1794
  5848   2   1811   1812   1807   1833
  5849   9   1833   1807   1812   1794
  5850   1   1807   1808   1809   1810
  5851   3   1807   1808   1809   2113
  5852   2   1810   1809   1808   1834
  5853   4   1834   1808   1809   2113
  5854   1   1808   1809   1810   1811
  5855   2   1808   1809   1810   1835
  5856   3   1811   1810   1809   2113
  5857   4   1835   1810   1809   2113
  5858   5   1808   1809   2113   2114
  5859   6   1808   1809   2113   2115
  5860   6   1808   1809   2113   2116
  5861   5   1810   1809   2113   2114
  5862   6   1810   1809   2113   2115
  5863   6   1810   1809   2113   2116
  5864   1   1809   1810   1811   1812
  5865   2   1809   1810   1811   1836
  5866   2   1812   1811   1810   1835
  5867   7   1835   1810   1811   1836
  5868   1   1810   1811   1812   1807
  5869   8   1810   1811   1812   1794
  5870   2   1807   1812   1811   1836
  5871   9   1836   1811   1812   1794
  5872   1   1842   1837   1838   1839
  5873   2   1842   1837   1838   1843
  5874   3   1839   1838   1837   2060
  5875   4   1843   1838   1837   2060
  5876   1   1838   1837   1842   1841
  5877   2   1838   1837   1842   1846
  5878   3   1841   1842   1837   2060
  5879   4   1846   1842   1837   2060
  5880   5   1838   1837   2060   2059
  5881   6   1838   1837   2060   2063
  5882   6   1838   1837   2060   2064
  5883   5   1842   1837   2060   2059
  5884   6   1842   1837   2060   2063
  5885   6   1842   1837   2060   2064
  5886   1   1837   1838   1839   1840
  5887   2   1837   1838   1839   1844
  5888   2   1840   1839   1838   1843
  5889   7   1843   1838   1839   1844
  5890   1   1838   1839   1840   1841
  5891   8   1838   1839   1840   1853
  5892   2   1841   1840   1839   1844
  5893   9   1844   1839   1840   1853
  5894   1   1839   1840   1841   1842
  5895   2   1839   1840   1841   1845
  5896   8   1842   1841   1840   1853
  5897   9   1845   1841   1840   1853
  5898  10   1839   1840   1853   1848
  5899  10   1839   1840   1853   1854
  5900  10   1839   1840   1853   1865
  5901  10   1841   1840   1853   1848
  5902  10   1841   1840   1853   1854
  5903  10   1841   1840   1853   1865
  5904   1   1840   1841   1842   1837
  5905   2   1840   1841   1842   1846
  5906   2   1837   1842   1841   1845
  5907   7   1845   1841   1842   1846
  5908   1   1852   1847   1848   1849
  5909   8   1852   1847   1848   1853
  5910   2   1849   1848   1847   1885
  5911   9   1885   1847   1848   1853
  5912   1   1848   1847   1852   1851
  5913   2   1848   1847   1852   1888
  5914   2   1851   1852   1847   1885
  5915   7   1885   1847   1852   1888
  5916   1   1847   1848   1849   1850
  5917   2   1847   1848   1849   1886
  5918   8   1850   1849   1848   1853
  5919   9   1886   1849   1848   1853
  5920  10   1847   1848   1853   1840
  5921  10   1847   1848   1853   1854
  5922  10   1847   1848   1853   1865
  5923  10   1849   1848   1853   1840
  5924  10   1849   1848   1853   1854
  5925  10   1849   1848   1853   1865
  5926   1   1848   1849   1850   1851
  5927   2   1848   1849   1850   1887
  5928   2   1851   1850   1849   1886
  5929   7   1886   1849   1850   1887
  5930   1   1849   1850   1851   1852
  5931   3   1849   1850   1851   2150
  5932   2   1852   1851   1850   1887
  5933   4   1887   1850   1851   2150
  5934   1   1850   1851   1852   1847
  5935   2   1850   1851   1852   1888
  5936   3   1847   1852   1851   2150
  5937   4   1888   1852   1851   2150
  5938   5   1850   1851   2150   1609
  5939   6   1850   1851   2150   2153
  5940   6   1850   1851   2150   2154
  5941   5   1852   1851   2150   1609
  5942   6   1852   1851   2150   2153
  5943   6   1852   1851   2150   2154
  5944  10   1855   1854   1853   1840
  5945  10   1859   1854   1853   1840
  5946  10   1855   1854   1853   1848
  5947  10   1859   1854   1853   1848
  5948  10   1855   1854   1853   1865
  5949  10   1859   1854   1853   1865
  5950  10   1864   1865   1853   1840
  5951  10   1860   1865   1853   1840
  5952  10   1864   1865   1853   1848
  5953  10   1860   1865   1853   1848
  5954  10   1864   1865   1853   1854
  5955  10   1860   1865   1853   1854
  5956   8   1316   1855   1854   1853
  5957   9   1889   1855   1854   1853
  5958   1   1859   1854   1855   1316
  5959   2   1859   1854   1855   1889
  5960   8   1858   1859   1854   1853
  5961   9   1892   1859   1854   1853
  5962   1   1855   1854   1859   1858
  5963   2   1855   1854   1859   1892
  5964   1   1316   1857   1858   1859
  5965   2   1316   1857   1858   1891
  5966   3   1859   1858   1857   1525
  5967   4   1891   1858   1857   1525
  5968   1   1857   1858   1859   1854
  5969   2   1857   1858   1859   1892
  5970   2   1854   1859   1858   1891
  5971   7   1891   1858   1859   1892
  5972   1   1865   1860   1861   1862
  5973   2   1865   1860   1861   1894
  5974   2   1862   1861   1860   1893
  5975   7   1893   1860   1861   1894
  5976   8   1861   1860   1865   1853
  5977   1   1861   1860   1865   1864
  5978   9   1893   1860   1865   1853
  5979   2   1864   1865   1860   1893
  5980   1   1860   1861   1862   1863
  5981   8   1860   1861   1862   1866
  5982   2   1863   1862   1861   1894
  5983   9   1894   1861   1862   1866
  5984   1   1861   1862   1863   1864
  5985   2   1861   1862   1863   1895
  5986   8   1864   1863   1862   1866
  5987   9   1895   1863   1862   1866
  5988  10   1861   1862   1866   1330
  5989  10   1861   1862   1866   1333
  5990  10   1861   1862   1866   1884
  5991  10   1863   1862   1866   1330
  5992  10   1863   1862   1866   1333
  5993  10   1863   1862   1866   1884
  5994   1   1862   1863   1864   1865
  5995   2   1862   1863   1864   1896
  5996   2   1865   1864   1863   1895
  5997   7   1895   1863   1864   1896
  5998   8   1863   1864   1865   1853
  5999   1   1863   1864   1865   1860
  6000   9   1896   1864   1865   1853
  6001   2   1860   1865   1864   1896
  6002  10   1883   1884   1866   1862
  6003  10   1339   1884   1866   1862
  6004  10   1883   1884   1866   1330
  6005  10   1339   1884   1866   1330
  6006  10   1883   1884   1866   1333
  6007  10   1339   1884   1866   1333
  6008   1   1872   1867   1868   1329
  6009   2   1872   1867   1868   1357
  6010   3   1329   1868   1867   2090
  6011   4   1357   1868   1867   2090
  6012   1   1868   1867   1872   1871
  6013   2   1868   1867   1872   1900
  6014   3   1871   1872   1867   2090
  6015   4   1900   1872   1867   2090
  6016   5   1868   1867   2090   2089
  6017   6   1868   1867   2090   2093
  6018   6   1868   1867   2090   2094
  6019   5   1872   1867   2090   2089
  6020   6   1872   1867   2090   2093
  6021   6   1872   1867   2090   2094
  6022   1   1329   1870   1871   1872
  6023   2   1329   1870   1871   1899
  6024   8   1872   1871   1870   1326
  6025   9   1899   1871   1870   1326
  6026   1   1870   1871   1872   1867
  6027   2   1870   1871   1872   1900
  6028   2   1867   1872   1871   1899
  6029   7   1899   1871   1872   1900
  6030   8   1875   1874   1873   1326
  6031   9   1361   1874   1873   1326
  6032   1   1878   1873   1874   1875
  6033   2   1878   1873   1874   1361
  6034   8   1877   1878   1873   1326
  6035   9   1904   1878   1873   1326
  6036   1   1874   1873   1878   1877
  6037   2   1874   1873   1878   1904
  6038   1   1873   1874   1875   1876
  6039   2   1873   1874   1875   1902
  6040   2   1876   1875   1874   1361
  6041   7   1361   1874   1875   1902
  6042   1   1874   1875   1876   1877
  6043   3   1874   1875   1876   2108
  6044   2   1877   1876   1875   1902
  6045   4   1902   1875   1876   2108
  6046   1   1875   1876   1877   1878
  6047   2   1875   1876   1877   1903
  6048   3   1878   1877   1876   2108
  6049   4   1903   1877   1876   2108
  6050   5   1875   1876   2108   2107
  6051   6   1875   1876   2108   2111
  6052   6   1875   1876   2108   2112
  6053   5   1877   1876   2108   2107
  6054   6   1877   1876   2108   2111
  6055   6   1877   1876   2108   2112
  6056   1   1876   1877   1878   1873
  6057   2   1876   1877   1878   1904
  6058   2   1873   1878   1877   1903
  6059   7   1903   1877   1878   1904
  6060   1   1339   1880   1881   1882
  6061   3   1339   1880   1881   2071
  6062   2   1882   1881   1880   1366
  6063   4   1366   1880   1881   2071
  6064   1   1880   1881   1882   1883
  6065   2   1880   1881   1882   1907
  6066   3   1883   1882   1881   2071
  6067   4   1907   1882   1881   2071
  6068   5   1880   1881   2071   2072
  6069   6   1880   1881   2071   2073
  6070   6   1880   1881   2071   2074
  6071   5   1882   1881   2071   2072
  6072   6   1882   1881   2071   2073
  6073   6   1882   1881   2071   2074
  6074   1   1881   1882   1883   1884
  6075   2   1881   1882   1883   1908
  6076   2   1884   1883   1882   1907
  6077   7   1907   1882   1883   1908
  6078   8   1882   1883   1884   1866
  6079   1   1882   1883   1884   1339
  6080   9   1908   1883   1884   1866
  6081   2   1339   1884   1883   1908
  6082   1   1914   1909   1910   1911
  6083   2   1914   1909   1910   1915
  6084   3   1911   1910   1909   2102
  6085   4   1915   1910   1909   2102
  6086   1   1910   1909   1914   1913
  6087   2   1910   1909   1914   1918
  6088   3   1913   1914   1909   2102
  6089   4   1918   1914   1909   2102
  6090   5   1910   1909   2102   2101
  6091   6   1910   1909   2102   2105
  6092   6   1910   1909   2102   2106
  6093   5   1914   1909   2102   2101
  6094   6   1914   1909   2102   2105
  6095   6   1914   1909   2102   2106
  6096   1   1909   1910   1911   1912
  6097   2   1909   1910   1911   1916
  6098   2   1912   1911   1910   1915
  6099   7   1915   1910   1911   1916
  6100   1   1910   1911   1912   1913
  6101   8   1910   1911   1912   1925
  6102   2   1913   1912   1911   1916
  6103   9   1916   1911   1912   1925
  6104   1   1911   1912   1913   1914
  6105   2   1911   1912   1913   1917
  6106   8   1914   1913   1912   1925
  6107   9   1917   1913   1912   1925
  6108  10   1911   1912   1925   1920
  6109  10   1911   1912   1925   1926
  6110  10   1911   1912   1925   1937
  6111  10   1913   1912   1925   1920
  6112  10   1913   1912   1925   1926
  6113  10   1913   1912   1925   1937
  6114   1   1912   1913   1914   1909
  6115   2   1912   1913   1914   1918
  6116   2   1909   1914   1913   1917
  6117   7   1917   1913   1914   1918
  6118   1   1924   1919   1920   1921
  6119   8   1924   1919   1920   1925
  6120   2   1921   1920   1919   1957
  6121   9   1957   1919   1920   1925
  6122   1   1920   1919   1924   1923
  6123   2   1920   1919   1924   1960
  6124   2   1923   1924   1919   1957
  6125   7   1957   1919   1924   1960
  6126   1   1919   1920   1921   1922
  6127   2   1919   1920   1921   1958
  6128   8   1922   1921   1920   1925
  6129   9   1958   1921   1920   1925
  6130  10   1919   1920   1925   1912
  6131  10   1919   1920   1925   1926
  6132  10   1919   1920   1925   1937
  6133  10   1921   1920   1925   1912
  6134  10   1921   1920   1925   1926
  6135  10   1921   1920   1925   1937
  6136   1   1920   1921   1922   1923
  6137   2   1920   1921   1922   1959
  6138   2   1923   1922   1921   1958
  6139   7   1958   1921   1922   1959
  6140   1   1921   1922   1923   1924
  6141   3   1921   1922   1923   2072
  6142   2   1924   1923   1922   1959
  6143   4   1959   1922   1923   2072
  6144   1   1922   1923   1924   1919
  6145   2   1922   1923   1924   1960
  6146   3   1919   1924   1923   2072
  6147   4   1960   1924   1923   2072
  6148   5   1922   1923   2072   2071
  6149   6   1922   1923   2072   2075
  6150   6   1922   1923   2072   2076
  6151   5   1924   1923   2072   2071
  6152   6   1924   1923   2072   2075
  6153   6   1924   1923   2072   2076
  6154  10   1927   1926   1925   1912
  6155  10   1931   1926   1925   1912
  6156  10   1927   1926   1925   1920
  6157  10   1931   1926   1925   1920
  6158  10   1927   1926   1925   1937
  6159  10   1931   1926   1925   1937
  6160  10   1936   1937   1925   1912
  6161  10   1932   1937   1925   1912
  6162  10   1936   1937   1925   1920
  6163  10   1932   1937   1925   1920
  6164  10   1936   1937   1925   1926
  6165  10   1932   1937   1925   1926
  6166   8   1928   1927   1926   1925
  6167   9   1961   1927   1926   1925
  6168   1   1931   1926   1927   1928
  6169   2   1931   1926   1927   1961
  6170   8   1930   1931   1926   1925
  6171   9   1964   1931   1926   1925
  6172   1   1927   1926   1931   1930
  6173   2   1927   1926   1931   1964
  6174   1   1926   1927   1928   1929
  6175   2   1926   1927   1928   1962
  6176   2   1929   1928   1927   1961
  6177   7   1961   1927   1928   1962
  6178   1   1927   1928   1929   1930
  6179   3   1927   1928   1929   2095
  6180   2   1930   1929   1928   1962
  6181   4   1962   1928   1929   2095
  6182   1   1928   1929   1930   1931
  6183   2   1928   1929   1930   1963
  6184   3   1931   1930   1929   2095
  6185   4   1963   1930   1929   2095
  6186   5   1928   1929   2095   2096
  6187   6   1928   1929   2095   2097
  6188   6   1928   1929   2095   2098
  6189   5   1930   1929   2095   2096
  6190   6   1930   1929   2095   2097
  6191   6   1930   1929   2095   2098
  6192   1   1929   1930   1931   1926
  6193   2   1929   1930   1931   1964
  6194   2   1926   1931   1930   1963
  6195   7   1963   1930   1931   1964
  6196   1   1937   1932   1933   1934
  6197   2   1937   1932   1933   1966
  6198   2   1934   1933   1932   1965
  6199   7   1965   1932   1933   1966
  6200   1   1933   1932   1937   1936
  6201   8   1933   1932   1937   1925
  6202   2   1936   1937   1932   1965
  6203   9   1965   1932   1937   1925
  6204   1   1932   1933   1934   1935
  6205   8   1932   1933   1934   1938
  6206   2   1935   1934   1933   1966
  6207   9   1966   1933   1934   1938
  6208   1   1933   1934   1935   1936
  6209   2   1933   1934   1935   1967
  6210   8   1936   1935   1934   1938
  6211   9   1967   1935   1934   1938
  6212  10   1933   1934   1938   1942
  6213  10   1933   1934   1938   1945
  6214  10   1933   1934   1938   1956
  6215  10   1935   1934   1938   1942
  6216  10   1935   1934   1938   1945
  6217  10   1935   1934   1938   1956
  6218   1   1934   1935   1936   1937
  6219   2   1934   1935   1936   1968
  6220   2   1937   1936   1935   1967
  6221   7   1967   1935   1936   1968
  6222   8   1935   1936   1937   1925
  6223   1   1935   1936   1937   1932
  6224   9   1968   1936   1937   1925
  6225   2   1932   1937   1936   1968
  6226  10   1941   1942   1938   1934
  6227  10   1943   1942   1938   1934
  6228  10   1941   1942   1938   1945
  6229  10   1943   1942   1938   1945
  6230  10   1941   1942   1938   1956
  6231  10   1943   1942   1938   1956
  6232  10   1946   1945   1938   1934
  6233  10   1950   1945   1938   1934
  6234  10   1946   1945   1938   1942
  6235  10   1950   1945   1938   1942
  6236  10   1946   1945   1938   1956
  6237  10   1950   1945   1938   1956
  6238  10   1955   1956   1938   1934
  6239  10   1951   1956   1938   1934
  6240  10   1955   1956   1938   1942
  6241  10   1951   1956   1938   1942
  6242  10   1955   1956   1938   1945
  6243  10   1951   1956   1938   1945
  6244   1   1944   1939   1940   1941
  6245   2   1944   1939   1940   1969
  6246   3   1941   1940   1939   2053
  6247   4   1969   1940   1939   2053
  6248   1   1940   1939   1944   1943
  6249   2   1940   1939   1944   1972
  6250   3   1943   1944   1939   2053
  6251   4   1972   1944   1939   2053
  6252   5   1940   1939   2053   2054
  6253   6   1940   1939   2053   2055
  6254   6   1940   1939   2053   2056
  6255   5   1944   1939   2053   2054
  6256   6   1944   1939   2053   2055
  6257   6   1944   1939   2053   2056
  6258   1   1939   1940   1941   1942
  6259   2   1939   1940   1941   1970
  6260   2   1942   1941   1940   1969
  6261   7   1969   1940   1941   1970
  6262   8   1940   1941   1942   1938
  6263   1   1940   1941   1942   1943
  6264   9   1970   1941   1942   1938
  6265   2   1943   1942   1941   1970
  6266   8   1944   1943   1942   1938
  6267   9   1971   1943   1942   1938
  6268   1   1941   1942   1943   1944
  6269   2   1941   1942   1943   1971
  6270   1   1942   1943   1944   1939
  6271   2   1942   1943   1944   1972
  6272   2   1939   1944   1943   1971
  6273   7   1971   1943   1944   1972
  6274   8   1947   1946   1945   1938
  6275   9   1973   1946   1945   1938
  6276   1   1950   1945   1946   1947
  6277   2   1950   1945   1946   1973
  6278   8   1949   1950   1945   1938
  6279   9   1976   1950   1945   1938
  6280   1   1946   1945   1950   1949
  6281   2   1946   1945   1950   1976
  6282   1   1945   1946   1947   1948
  6283   2   1945   1946   1947   1974
  6284   2   1948   1947   1946   1973
  6285   7   1973   1946   1947   1974
  6286   1   1946   1947   1948   1949
  6287   3   1946   1947   1948   2077
  6288   2   1949   1948   1947   1974
  6289   4   1974   1947   1948   2077
  6290   1   1947   1948   1949   1950
  6291   2   1947   1948   1949   1975
  6292   3   1950   1949   1948   2077
  6293   4   1975   1949   1948   2077
  6294   5   1947   1948   2077   2078
  6295   6   1947   1948   2077   2079
  6296   6   1947   1948   2077   2080
  6297   5   1949   1948   2077   2078
  6298   6   1949   1948   2077   2079
  6299   6   1949   1948   2077   2080
  6300   1   1948   1949   1950   1945
  6301   2   1948   1949   1950   1976
  6302   2   1945   1950   1949   1975
  6303   7   1975   1949   1950   1976
  6304   1   1956   1951   1952   1953
  6305   2   1956   1951   1952   1978
  6306   2   1953   1952   1951   1977
  6307   7   1977   1951   1952   1978
  6308   1   1952   1951   1956   1955
  6309   8   1952   1951   1956   1938
  6310   2   1955   1956   1951   1977
  6311   9   1977   1951   1956   1938
  6312   1   1951   1952   1953   1954
  6313   3   1951   1952   1953   2143
  6314   2   1954   1953   1952   1978
  6315   4   1978   1952   1953   2143
  6316   1   1952   1953   1954   1955
  6317   2   1952   1953   1954   1979
  6318   3   1955   1954   1953   2143
  6319   4   1979   1954   1953   2143
  6320   5   1952   1953   2143   2144
  6321   6   1952   1953   2143   2145
  6322   6   1952   1953   2143   2146
  6323   5   1954   1953   2143   2144
  6324   6   1954   1953   2143   2145
  6325   6   1954   1953   2143   2146
  6326   1   1953   1954   1955   1956
  6327   2   1953   1954   1955   1980
  6328   2   1956   1955   1954   1979
  6329   7   1979   1954   1955   1980
  6330   8   1954   1955   1956   1938
  6331   1   1954   1955   1956   1951
  6332   9   1980   1955   1956   1938
  6333   2   1951   1956   1955   1980
  6334   1   1986   1981   1982   1983
  6335   2   1986   1981   1982   1987
  6336   3   1983   1982   1981   2066
  6337   4   1987   1982   1981   2066
  6338   1   1982   1981   1986   1985
  6339   2   1982   1981   1986   1990
  6340   3   1985   1986   1981   2066
  6341   4   1990   1986   1981   2066
  6342   5   1982   1981   2066   2065
  6343   6   1982   1981   2066   2069
  6344   6   1982   1981   2066   2070
  6345   5   1986   1981   2066   2065
  6346   6   1986   1981   2066   2069
  6347   6   1986   1981   2066   2070
  6348   1   1981   1982   1983   1984
  6349   2   1981   1982   1983   1988
  6350   2   1984   1983   1982   1987
  6351   7   1987   1982   1983   1988
  6352   1   1982   1983   1984   1985
  6353   8   1982   1983   1984   1997
  6354   2   1985   1984   1983   1988
  6355   9   1988   1983   1984   1997
  6356   1   1983   1984   1985   1986
  6357   2   1983   1984   1985   1989
  6358   8   1986   1985   1984   1997
  6359   9   1989   1985   1984   1997
  6360  10   1983   1984   1997   1992
  6361  10   1983   1984   1997   1998
  6362  10   1983   1984   1997   2009
  6363  10   1985   1984   1997   1992
  6364  10   1985   1984   1997   1998
  6365  10   1985   1984   1997   2009
  6366   1   1984   1985   1986   1981
  6367   2   1984   1985   1986   1990
  6368   2   1981   1986   1985   1989
  6369   7   1989   1985   1986   1990
  6370   1   1996   1991   1992   1993
  6371   8   1996   1991   1992   1997
  6372   2   1993   1992   1991   2029
  6373   9   2029   1991   1992   1997
  6374   1   1992   1991   1996   1995
  6375   2   1992   1991   1996   2032
  6376   2   1995   1996   1991   2029
  6377   7   2029   1991   1996   2032
  6378   1   1991   1992   1993   1994
  6379   2   1991   1992   1993   2030
  6380   8   1994   1993   1992   1997
  6381   9   2030   1993   1992   1997
  6382  10   1991   1992   1997   1984
  6383  10   1991   1992   1997   1998
  6384  10   1991   1992   1997   2009
  6385  10   1993   1992   1997   1984
  6386  10   1993   1992   1997   1998
  6387  10   1993   1992   1997   2009
  6388   1   1992   1993   1994   1995
  6389   2   1992   1993   1994    951
  6390   2   1995   1994   1993   2030
  6391   7   2030   1993   1994    951
  6392   1   1993   1994   1995   1996
  6393   3   1993   1994   1995   1040
  6394   2   1996   1995   1994    951
  6395   4    951   1994   1995   1040
  6396   1   1994   1995   1996   1991
  6397   2   1994   1995   1996   2032
  6398   3   1991   1996   1995   1040
  6399   4   2032   1996   1995   1040
  6400  10   1999   1998   1997   1984
  6401  10   2003   1998   1997   1984
  6402  10   1999   1998   1997   1992
  6403  10   2003   1998   1997   1992
  6404  10   1999   1998   1997   2009
  6405  10   2003   1998   1997   2009
  6406  10   2008   2009   1997   1984
  6407  10   2004   2009   1997   1984
  6408  10   2008   2009   1997   1992
  6409  10   2004   2009   1997   1992
  6410  10   2008   2009   1997   1998
  6411  10   2004   2009   1997   1998
  6412   8    920   1999   1998   1997
  6413   9    953   1999   1998   1997
  6414   1   2003   1998   1999    920
  6415   2   2003   1998   1999    953
  6416   8   2002   2003   1998   1997
  6417   9   2036   2003   1998   1997
  6418   1   1999   1998   2003   2002
  6419   2   1999   1998   2003   2036
  6420   1    920   2001   2002   2003
  6421   2    920   2001   2002   2035
  6422   3   2003   2002   2001    979
  6423   4   2035   2002   2001    979
  6424   1   2001   2002   2003   1998
  6425   2   2001   2002   2003   2036
  6426   2   1998   2003   2002   2035
  6427   7   2035   2002   2003   2036
  6428   1   2009   2004   2005   2006
  6429   2   2009   2004   2005   2038
  6430   2   2006   2005   2004   2037
  6431   7   2037   2004   2005   2038
  6432   1   2005   2004   2009   2008
  6433   8   2005   2004   2009   1997
  6434   2   2008   2009   2004   2037
  6435   9   2037   2004   2009   1997
  6436   1   2004   2005   2006   2007
  6437   8   2004   2005   2006   2010
  6438   2   2007   2006   2005   2038
  6439   9   2038   2005   2006   2010
  6440   1   2005   2006   2007   2008
  6441   2   2005   2006   2007   2039
  6442   8   2008   2007   2006   2010
  6443   9   2039   2007   2006   2010
  6444  10   2005   2006   2010   2014
  6445  10   2005   2006   2010   2017
  6446  10   2005   2006   2010   2028
  6447  10   2007   2006   2010   2014
  6448  10   2007   2006   2010   2017
  6449  10   2007   2006   2010   2028
  6450   1   2006   2007   2008   2009
  6451   2   2006   2007   2008   2040
  6452   2   2009   2008   2007   2039
  6453   7   2039   2007   2008   2040
  6454   1   2007   2008   2009   2004
  6455   8   2007   2008   2009   1997
  6456   2   2004   2009   2008   2040
  6457   9   2040   2008   2009   1997
  6458  10   2013   2014   2010   2006
  6459  10    935   2014   2010   2006
  6460  10   2013   2014   2010   2017
  6461  10    935   2014   2010   2017
  6462  10   2013   2014   2010   2028
  6463  10    935   2014   2010   2028
  6464  10   2018   2017   2010   2006
  6465  10    942   2017   2010   2006
  6466  10   2018   2017   2010   2014
  6467  10    942   2017   2010   2014
  6468  10   2018   2017   2010   2028
  6469  10    942   2017   2010   2028
  6470  10   2023   2028   2010   2006
  6471  10   2027   2028   2010   2006
  6472  10   2023   2028   2010   2014
  6473  10   2027   2028   2010   2014
  6474  10   2023   2028   2010   2017
  6475  10   2027   2028   2010   2017
  6476   1    932   2011   2016   2015
  6477   2    932   2011   2016   2044
  6478   3   2015   2016   2011   2054
  6479   4   2044   2016   2011   2054
  6480   5    932   2011   2054   2053
  6481   6    932   2011   2054   2057
  6482   6    932   2011   2054   2058
  6483   5   2016   2011   2054   2053
  6484   6   2016   2011   2054   2057
  6485   6   2016   2011   2054   2058
  6486   1    931   2012   2013   2014
  6487   2    931   2012   2013   2042
  6488   2   2014   2013   2012   2041
  6489   7   2041   2012   2013   2042
  6490   8   2012   2013   2014   2010
  6491   1   2012   2013   2014    935
  6492   9   2042   2013   2014   2010
  6493   2    935   2014   2013   2042
  6494   1    934   2015   2016   2011
  6495   2    934   2015   2016   2044
  6496   2   2011   2016   2015   2043
  6497   7   2043   2015   2016   2044
  6498   8   2019   2018   2017   2010
  6499   9   2045   2018   2017   2010
  6500   1    942   2017   2018   2019
  6501   2    942   2017   2018   2045
  6502   1   2017   2018   2019    940
  6503   2   2017   2018   2019   1506
  6504   2    940   2019   2018   2045
  6505   7   2045   2018   2019   1506
  6506   1    939   2020   2021   2022
  6507   2    939   2020   2021   2047
  6508   3   2022   2021   2020   1598
  6509   4   2047   2021   2020   1598
  6510   1   2020   2021   2022    937
  6511   2   2020   2021   2022   2048
  6512   2    937   2022   2021   2047
  6513   7   2047   2021   2022   2048
  6514   1   2028   2023   2024   2025
  6515   2   2028   2023   2024   2050
  6516   2   2025   2024   2023   2049
  6517   7   2049   2023   2024   2050
  6518   8   2024   2023   2028   2010
  6519   1   2024   2023   2028   2027
  6520   9   2049   2023   2028   2010
  6521   2   2027   2028   2023   2049
  6522   1   2023   2024   2025   2026
  6523   3   2023   2024   2025   2083
  6524   2   2026   2025   2024   2050
  6525   4   2050   2024   2025   2083
  6526   1   2024   2025   2026   2027
  6527   2   2024   2025   2026   2051
  6528   3   2027   2026   2025   2083
  6529   4   2051   2026   2025   2083
  6530   5   2024   2025   2083   2084
  6531   6   2024   2025   2083   2085
  6532   6   2024   2025   2083   2086
  6533   5   2026   2025   2083   2084
  6534   6   2026   2025   2083   2085
  6535   6   2026   2025   2083   2086
  6536   1   2025   2026   2027   2028
  6537   2   2025   2026   2027   2052
  6538   2   2028   2027   2026   2051
  6539   7   2051   2026   2027   2052
  6540   8   2026   2027   2028   2010
  6541   1   2026   2027   2028   2023
  6542   9   2052   2027   2028   2010
  6543   2   2023   2028   2027   2052
  6544  11   1939   2053   2054   2011
  6545  12   1939   2053   2054   2057
  6546  12   1939   2053   2054   2058
  6547  12   2011   2054   2053   2055
  6548  13   2055   2053   2054   2057
  6549  13   2055   2053   2054   2058
  6550  12   2011   2054   2053   2056
  6551  13   2056   2053   2054   2057
  6552  13   2056   2053   2054   2058
  6553  11    921   2059   2060   1837
  6554  12    921   2059   2060   2063
  6555  12    921   2059   2060   2064
  6556  12   1837   2060   2059   2061
  6557  13   2061   2059   2060   2063
  6558  13   2061   2059   2060   2064
  6559  12   1837   2060   2059   2062
  6560  13   2062   2059   2060   2063
  6561  13   2062   2059   2060   2064
  6562  11   1317   2065   2066   1981
  6563  12   1317   2065   2066   2069
  6564  12   1317   2065   2066   2070
  6565  12   1981   2066   2065   2067
  6566  13   2067   2065   2066   2069
  6567  13   2067   2065   2066   2070
  6568  12   1981   2066   2065   2068
  6569  13   2068   2065   2066   2069
  6570  13   2068   2065   2066   2070
  6571  11   1881   2071   2072   1923
  6572  12   1881   2071   2072   2075
  6573  12   1881   2071   2072   2076
  6574  12   1923   2072   2071   2073
  6575  13   2073   2071   2072   2075
  6576  13   2073   2071   2072   2076
  6577  12   1923   2072   2071   2074
  6578  13   2074   2071   2072   2075
  6579  13   2074   2071   2072   2076
  6580  11   1948   2077   2078   1804
  6581  12   1948   2077   2078   1541
  6582  12   1948   2077   2078   2082
  6583  12   1804   2078   2077   2079
  6584  13   2079   2077   2078   1541
  6585  13   2079   2077   2078   2082
  6586  12   1804   2078   2077   2080
  6587  13   2080   2077   2078   1541
  6588  13   2080   2077   2078   2082
  6589  11   2025   2083   2084   1779
  6590  12   2025   2083   2084   2087
  6591  12   2025   2083   2084   2088
  6592  12   1779   2084   2083   2085
  6593  13   2085   2083   2084   2087
  6594  13   2085   2083   2084   2088
  6595  12   1779   2084   2083   2086
  6596  13   2086   2083   2084   2087
  6597  13   2086   2083   2084   2088
  6598  11   1795   2089   2090   1867
  6599  12   1795   2089   2090   2093
  6600  12   1795   2089   2090   2094
  6601  12   1867   2090   2089   2091
  6602  13   2091   2089   2090   2093
  6603  13   2091   2089   2090   2094
  6604  12   1867   2090   2089   2092
  6605  13   2092   2089   2090   2093
  6606  13   2092   2089   2090   2094
  6607  11   1929   2095   2096   1693
  6608  12   1929   2095   2096   2099
  6609  12   1929   2095   2096   2100
  6610  12   1693   2096   2095   2097
  6611  13   2097   2095   2096   2099
  6612  13   2097   2095   2096   2100
  6613  12   1693   2096   2095   2098
  6614  13   2098   2095   2096   2099
  6615  13   2098   2095   2096   2100
  6616  11   1713   2101   2102   1909
  6617  12   1713   2101   2102   2105
  6618  12   1713   2101   2102   2106
  6619  12   1909   2102   2101   2103
  6620  13   2103   2101   2102   2105
  6621  13   2103   2101   2102   2106
  6622  12   1909   2102   2101   2104
  6623  13   2104   2101   2102   2105
  6624  13   2104   2101   2102   2106
  6625  11   1732   2107   2108   1876
  6626  12   1732   2107   2108   2111
  6627  12   1732   2107   2108   2112
  6628  12   1876   2108   2107   2109
  6629  13   2109   2107   2108   2111
  6630  13   2109   2107   2108   2112
  6631  12   1876   2108   2107   2110
  6632  13   2110   2107   2108   2111
  6633  13   2110   2107   2108   2112
  6634  11   1809   2113   2114   1707
  6635  12   1809   2113   2114   2117
  6636  12   1809   2113   2114   2118
  6637  12   1707   2114   2113   2115
  6638  13   2115   2113   2114   2117
  6639  13   2115   2113   2114   2118
  6640  12   1707   2114   2113   2116
  6641  13   2116   2113   2114   2117
  6642  13   2116   2113   2114   2118
  6643  11   1737   2119   2120    915
  6644  12   1737   2119   2120   2123
  6645  12   1737   2119   2120   1044
  6646  12    915   2120   2119   2121
  6647  13   2121   2119   2120   2123
  6648  13   2121   2119   2120   1044
  6649  12    915   2120   2119   2122
  6650  13   2122   2119   2120   2123
  6651  13   2122   2119   2120   1044
  6652  11   1785   2125   2126   1621
  6653  12   1785   2125   2126   2129
  6654  12   1785   2125   2126   2130
  6655  12   1621   2126   2125   2127
  6656  13   2127   2125   2126   2129
  6657  13   2127   2125   2126   2130
  6658  12   1621   2126   2125   2128
  6659  13   2128   2125   2126   2129
  6660  13   2128   2125   2126   2130
  6661  11   1641   2131   2132   1765
  6662  12   1641   2131   2132   2135
  6663  12   1641   2131   2132   2136
  6664  12   1765   2132   2131   2133
  6665  13   2133   2131   2132   2135
  6666  13   2133   2131   2132   2136
  6667  12   1765   2132   2131   2134
  6668  13   2134   2131   2132   2135
  6669  13   2134   2131   2132   2136
  6670  11    580   2137   2138   1480
  6671  12    580   2137   2138   1601
  6672  12    580   2137   2138   1062
  6673  12   1480   2138   2137   2139
  6674  13   2139   2137   2138   1601
  6675  13   2139   2137   2138   1062
  6676  12   1480   2138   2137   1600
  6677  13   1600   2137   2138   1601
  6678  13   1600   2137   2138   1062
  6679  11   1953   2143   2144   1635
  6680  12   1953   2143   2144   2147
  6681  12   1953   2143   2144   2148
  6682  12   1635   2144   2143   2145
  6683  13   2145   2143   2144   2147
  6684  13   2145   2143   2144   2148
  6685  12   1635   2144   2143   2146
  6686  13   2146   2143   2144   2147
  6687  13   2146   2143   2144   2148
  6688  11   1651   2155   2156   1723
  6689  12   1651   2155   2156   2159
  6690  12   1651   2155   2156   2160
  6691  12   1723   2156   2155   2157
  6692  13   2157   2155   2156   2159
  6693  13   2157   2155   2156   2160
  6694  12   1723   2156   2155   2158
  6695  13   2158   2155   2156   2159
  6696  13   2158   2155   2156   2160

Impropers

     1   1      2      1      6    506 
     2   2      1      2      3      7 
     3   2      2      3      4      8 
     4   3      3      4      5    557 
     5   2      4      5      6    549 
     6   2      1      6      5     10 
     7   2     12     11     16     49 
     8   3     11     12     13     17 
     9   2     12     13     14     50 
    10   2     13     14     15     51 
    11   1     14     15     16    524 
    12   2     11     16     15     52 
    13   3    559     18     23     17 
    14   2    558     19    560     53 
    15   2    559     20     21    594 
    16   1     20     21     22    511 
    17   2     21     22     23     55 
    18   2     18     23     22     56 
    19   2     25     24     29     57 
    20   2     24     25     26     58 
    21   3     25     26    567     30 
    22   2    566     27     28     59 
    23   2     27     28    569     60 
    24   3    568     29     24     17 
    25   1     32     31     36    535 
    26   2     31     32     33     61 
    27   2     32     33     34     62 
    28   3     33     34     35     30 
    29   2     34     35     36     63 
    30   2     35     36     31     64 
    31   3    578     37     42     30 
    32   2    577     38     39     65 
    33   2     38     39    580   1146 
    34   1    579     40     41   1597 
    35   2     40     41     42     67 
    36   2     41     42     37     68 
    37   2    584     43     48     69 
    38   2    583     44     45     70 
    39   1     44     45     46    529 
    40   2     45     46    587     71 
    41   2    586     47     48     72 
    42   3     47     48     43     30 
    43   1     74     73     78    476 
    44   2     73     74     75     79 
    45   2     74     75   1156     80 
    46   3   1155     76     77     89 
    47   2     76     77   1158     81 
    48   2     73     78   1157     82 
    49   2     84     83     88    121 
    50   3     83     84     85     89 
    51   2     84     85     86    122 
    52   2     85     86     87    123 
    53   1     86     87     88    494 
    54   2     87     88     83    124 
    55   3     91     90     95     89 
    56   2     90     91     92    125 
    57   2     91     92     93    126 
    58   1     92     93     94    481 
    59   2     93     94     95    127 
    60   2     94     95     90    128 
    61   2     97     96    101    129 
    62   2     96     97   1178    130 
    63   3   1177     98     99   1182 
    64   2     98     99    100    131 
    65   2     99    100   1181    132 
    66   3     96    101   1180     89 
    67   1    104    103    108    536 
    68   2    103    104    105    133 
    69   2    104    105    106    134 
    70   3    105    106    107    102 
    71   2    106    107    108    135 
    72   2    107    108    103    136 
    73   3    110    109   1194   1182 
    74   2    109    110    651    137 
    75   2    650    111    112    138 
    76   1    111    112    113    487 
    77   2    112    113   1734   1219 
    78   2   1733    114   1189    140 
    79   2   1196    115   1200    141 
    80   2   1195    116    117   1222 
    81   1    116    117    118    499 
    82   2    117    118    119    143 
    83   2    118    119    120    144 
    84   3    119    120   1195   1182 
    85   1    146    145    150    512 
    86   2    145    146    147    151 
    87   2    146    147    148    152 
    88   3    147    148    149    161 
    89   2    148    149    150    153 
    90   2    149    150    145    154 
    91   2    156    155    160    193 
    92   3    155    156    157    161 
    93   2    156    157    158    194 
    94   2    157    158    159    195 
    95   1    158    159    160    464 
    96   2    159    160    155    196 
    97   3    163    162    167    161 
    98   2    162    163    164    197 
    99   2    163    164    165    198 
   100   1    164    165    166    505 
   101   2    165    166    167    199 
   102   2    162    167    166    200 
   103   2    169    168    173    201 
   104   2    168    169    170    202 
   105   3    169    170    171    174 
   106   2    170    171    172    203 
   107   2    171    172    173    204 
   108   3    168    173    172    161 
   109   1    176    175    180    469 
   110   2    175    176    177    205 
   111   2    176    177    178    206 
   112   3    177    178    179    174 
   113   2    178    179    180    207 
   114   2    175    180    179    208 
   115   3    182    181    186    174 
   116   2    181    182    183    209 
   117   2    182    183    184    210 
   118   1    183    184    185    458 
   119   2    184    185    186    211 
   120   2    181    186    185    212 
   121   2    188    187    192    213 
   122   2    187    188    189    214 
   123   1    188    189    190    493 
   124   2    189    190    191    215 
   125   2    190    191    192    216 
   126   3    187    192    191    174 
   127   1    218    217    222    440 
   128   2    217    218    219    223 
   129   2    218    219    220    224 
   130   3    219    220    221    233 
   131   2    220    221    222    225 
   132   2    217    222    221    226 
   133   2    228    227    232    265 
   134   3    227    228    229    233 
   135   2    228    229    230    266 
   136   2    229    230    231    267 
   137   1    230    231    232    530 
   138   2    227    232    231    268 
   139   3    235    234    239    233 
   140   2    234    235    776    269 
   141   2    775    236    777    270 
   142   1    776    237    238    985 
   143   2    237    238    239    271 
   144   2    238    239    234    272 
   145   2    241    240    245    273 
   146   2    240    241    242    274 
   147   3    241    242    243    246 
   148   2    242    243    244    275 
   149   2    243    244    245    276 
   150   3    244    245    240    233 
   151   1    248    247    252    470 
   152   2    247    248    789    817 
   153   2    788    249    790    278 
   154   3    789    250    251    786 
   155   2    250    251    252    279 
   156   2    251    252    247    280 
   157   3    254    253    258    786 
   158   2    253    254    255    821 
   159   2    254    255    256    282 
   160   1    255    256    257    488 
   161   2    256    257    258    283 
   162   2    253    258    257    284 
   163   2    800    259    804    285 
   164   2    799    260    261    826 
   165   1    260    261    262    451 
   166   2    261    262    263    287 
   167   2    262    263    264    288 
   168   3    263    264    799    246 
   169   1    290    289    294    482 
   170   2    289    290    291    295 
   171   2    290    291    292    296 
   172   3    291    292    293    305 
   173   2    292    293    294    297 
   174   2    289    294    293    298 
   175   2    300    299    304    337 
   176   3    299    300    301    305 
   177   2    300    301    302    338 
   178   2    301    302    303    339 
   179   1    302    303    304    452 
   180   2    303    304    299    340 
   181   3    307    306    311    305 
   182   2    306    307    308    341 
   183   2    307    308    309    342 
   184   1    308    309    310    475 
   185   2    309    310    311    343 
   186   2    310    311    306    344 
   187   2    313    312    317    345 
   188   2    312    313    314    346 
   189   3    313    314    315    318 
   190   2    314    315    316    347 
   191   2    315    316    317    348 
   192   3    316    317    312    305 
   193   1    320    319    324    433 
   194   2    319    320    321    349 
   195   2    320    321    322    350 
   196   3    321    322    323    318 
   197   2    322    323    324    351 
   198   2    323    324    319    352 
   199   3    326    325    330    318 
   200   2    325    326    327    353 
   201   2    326    327    328    354 
   202   1    327    328    329    457 
   203   2    328    329    330    355 
   204   2    329    330    325    356 
   205   2    332    331    336    357 
   206   2    331    332    333    358 
   207   1    332    333    334    523 
   208   2    333    334    335    359 
   209   2    334    335    336    360 
   210   3    335    336    331    318 
   211   1    362    361    366    446 
   212   2    361    362    363    367 
   213   2    362    363    364    368 
   214   3    363    364    365    377 
   215   2    364    365    366    369 
   216   2    361    366    365    370 
   217   2    372    371    376    409 
   218   3    371    372    373    377 
   219   2    372    373    374    410 
   220   2    373    374    375   1491 
   221   1    374    375    376   1580 
   222   2    375    376    371    412 
   223   3    379    378    383    377 
   224   2    378    379   1460   1493 
   225   2   1459    380   1461    414 
   226   1   1460    381    382   1519 
   227   2    381    382    383    415 
   228   2    378    383    382    416 
   229   2    385    384    389    417 
   230   2    384    385    386    418 
   231   3    385    386    387    390 
   232   2    386    387    388    419 
   233   2    387    388    389    420 
   234   3    388    389    384    377 
   235   1   1472    391    396    434 
   236   2   1471    392    393    421 
   237   2    392    393    394    422 
   238   3    393    394   1475    390 
   239   2   1474    395    396    423 
   240   2    395    396    391    424 
   241   3    398    397   1482    390 
   242   2    397    398    399    425 
   243   2    398    399   1480    966 
   244   1   1479    400    401   1058 
   245   2    400    401    402    427 
   246   2    401    402   1477    428 
   247   2    404    403    408    429 
   248   2    403    404    405    430 
   249   1    404    405    406    463 
   250   2    405    406    407    431 
   251   2    406    407    408    432 
   252   3    403    408    407    390 
   253   1    542    541    546   1046 
   254   2    541    542    543    547 
   255   2    542    543    544    548 
   256   3    543    544    545     17 
   257   2    544    545    546      9 
   258   2    541    546    545    550 
   259   2    552    551    556    589 
   260   3    551    552    553    557 
   261   2    552    553    554    590 
   262   2    553    554    555    591 
   263   1    554    555    556   1064 
   264   2    551    556    555    592 
   265   3     19    558    563    557 
   266   2     18    559     20    593 
   267   2     19    560    561     54 
   268   1    560    561    562   1051 
   269   2    561    562    563    595 
   270   2    558    563    562    596 
   271   2    565    564    569    597 
   272   2    564    565    566    598 
   273   3    565    566     27    570 
   274   2     26    567    568    599 
   275   2    567    568     29    600 
   276   3     28    569    564    557 
   277   1    572    571    576   1075 
   278   2    571    572    573    601 
   279   2    572    573    574    602 
   280   3    573    574    575    570 
   281   2    574    575    576    603 
   282   2    575    576    571    604 
   283   3     38    577    582    570 
   284   2     37    578    579    605 
   285   2    578    579     40   1686 
   286   1     39    580    581   2137 
   287   2    580    581    582    607 
   288   2    581    582    577    608 
   289   2     44    583    588    609 
   290   2     43    584    585    610 
   291   1    584    585    586   1069 
   292   2    585    586     47    611 
   293   2     46    587    588    612 
   294   3    587    588    583    570 
   295   1    614    613    618   1016 
   296   2    613    614    615    619 
   297   2    614    615   1696    620 
   298   3   1695    616    617    629 
   299   2    616    617   1698    621 
   300   2    613    618   1697    622 
   301   2    624    623    628    661 
   302   3    623    624    625    629 
   303   2    624    625    626    662 
   304   2    625    626    627    663 
   305   1    626    627    628   1034 
   306   2    627    628    623    664 
   307   3    631    630    635    629 
   308   2    630    631    632    665 
   309   2    631    632    633    666 
   310   1    632    633    634   1021 
   311   2    633    634    635    667 
   312   2    634    635    630    668 
   313   2    637    636    641    669 
   314   2    636    637   1718    670 
   315   3   1717    638    639   1722 
   316   2    638    639    640    671 
   317   2    639    640   1721    672 
   318   3    636    641   1720    629 
   319   1    644    643    648   1076 
   320   2    643    644    645    673 
   321   2    644    645    646    674 
   322   3    645    646    647    642 
   323   2    646    647    648    675 
   324   2    647    648    643    676 
   325   3    650    649   1734   1722 
   326   2    649    650    111    677 
   327   2    110    651    652    678 
   328   1    651    652    653   1027 
   329   2    652    653   1194   1759 
   330   2   1193    654   1729    680 
   331   2   1736    655   1740    681 
   332   2   1735    656    657   1762 
   333   1    656    657    658   1039 
   334   2    657    658    659    683 
   335   2    658    659    660    684 
   336   3    659    660   1735   1722 
   337   1    686    685    690   1052 
   338   2    685    686    687    691 
   339   2    686    687    688    692 
   340   3    687    688    689    701 
   341   2    688    689    690    693 
   342   2    689    690    685    694 
   343   2    696    695    700    733 
   344   3    695    696    697    701 
   345   2    696    697    698    734 
   346   2    697    698    699    735 
   347   1    698    699    700   1004 
   348   2    699    700    695    736 
   349   3    703    702    707    701 
   350   2    702    703    704    737 
   351   2    703    704    705    738 
   352   1    704    705    706   1045 
   353   2    705    706    707    739 
   354   2    702    707    706    740 
   355   2    709    708    713    741 
   356   2    708    709    710    742 
   357   3    709    710    711    714 
   358   2    710    711    712    743 
   359   2    711    712    713    744 
   360   3    708    713    712    701 
   361   1    716    715    720   1009 
   362   2    715    716    717    745 
   363   2    716    717    718    746 
   364   3    717    718    719    714 
   365   2    718    719    720    747 
   366   2    715    720    719    748 
   367   3    722    721    726    714 
   368   2    721    722    723    749 
   369   2    722    723    724    750 
   370   1    723    724    725    998 
   371   2    724    725    726    751 
   372   2    721    726    725    752 
   373   2    728    727    732    753 
   374   2    727    728    729    754 
   375   1    728    729    730   1033 
   376   2    729    730    731    755 
   377   2    730    731    732    756 
   378   3    727    732    731    714 
   379   1    758    757    762    980 
   380   2    757    758    759    763 
   381   2    758    759    760    764 
   382   3    759    760    761    773 
   383   2    760    761    762    765 
   384   2    757    762    761    766 
   385   2    768    767    772    805 
   386   3    767    768    769    773 
   387   2    768    769    770    806 
   388   2    769    770    771    807 
   389   1    770    771    772   1070 
   390   2    767    772    771    808 
   391   3    775    774    779    773 
   392   2    774    775    236    809 
   393   2    235    776    237    810 
   394   1    236    777    778    445 
   395   2    777    778    779    811 
   396   2    778    779    774    812 
   397   2    781    780    785    813 
   398   2    780    781    782    814 
   399   3    781    782    783    786 
   400   2    782    783    784    815 
   401   2    783    784    785    816 
   402   3    784    785    780    773 
   403   1    788    787    792   1010 
   404   2    787    788    249    277 
   405   2    248    789    250    818 
   406   3    249    790    791    246 
   407   2    790    791    792    819 
   408   2    791    792    787    820 
   409   3    794    793    798    246 
   410   2    793    794    795    281 
   411   2    794    795    796    822 
   412   1    795    796    797   1028 
   413   2    796    797    798    823 
   414   2    793    798    797    824 
   415   2    260    799    264    825 
   416   2    259    800    801    286 
   417   1    800    801    802    991 
   418   2    801    802    803    827 
   419   2    802    803    804    828 
   420   3    803    804    259    786 
   421   1    830    829    834   1022 
   422   2    829    830    831    835 
   423   2    830    831    832    836 
   424   3    831    832    833    845 
   425   2    832    833    834    837 
   426   2    829    834    833    838 
   427   2    840    839    844    877 
   428   3    839    840    841    845 
   429   2    840    841    842    878 
   430   2    841    842    843    879 
   431   1    842    843    844    992 
   432   2    843    844    839    880 
   433   3    847    846    851    845 
   434   2    846    847    848    881 
   435   2    847    848    849    882 
   436   1    848    849    850   1015 
   437   2    849    850    851    883 
   438   2    850    851    846    884 
   439   2    853    852    857    885 
   440   2    852    853    854    886 
   441   3    853    854    855    858 
   442   2    854    855    856    887 
   443   2    855    856    857    888 
   444   3    856    857    852    845 
   445   1    860    859    864    973 
   446   2    859    860    861    889 
   447   2    860    861    862    890 
   448   3    861    862    863    858 
   449   2    862    863    864    891 
   450   2    863    864    859    892 
   451   3    866    865    870    858 
   452   2    865    866    867    893 
   453   2    866    867    868    894 
   454   1    867    868    869    997 
   455   2    868    869    870    895 
   456   2    869    870    865    896 
   457   2    872    871    876    897 
   458   2    871    872    873    898 
   459   1    872    873    874   1063 
   460   2    873    874    875    899 
   461   2    874    875    876    900 
   462   3    875    876    871    858 
   463   1    902    901    906    986 
   464   2    901    902    903    907 
   465   2    902    903    904    908 
   466   3    903    904    905    917 
   467   2    904    905    906    909 
   468   2    901    906    905    910 
   469   2    912    911    916    949 
   470   3    911    912    913    917 
   471   2    912    913    914    950 
   472   2    913    914    915   2031 
   473   1    914    915    916   2120 
   474   2    915    916    911    952 
   475   3    919    918    923    917 
   476   2    918    919   2000   2033 
   477   2   1999    920   2001    954 
   478   1   2000    921    922   2059 
   479   2    921    922    923    955 
   480   2    918    923    922    956 
   481   2    925    924    929    957 
   482   2    924    925    926    958 
   483   3    925    926    927    930 
   484   2    926    927    928    959 
   485   2    927    928    929    960 
   486   3    928    929    924    917 
   487   1   2012    931    936    974 
   488   2   2011    932    933    961 
   489   2    932    933    934    962 
   490   3    933    934   2015    930 
   491   2   2014    935    936    963 
   492   2    935    936    931    964 
   493   3    938    937   2022    930 
   494   2    937    938    939    965 
   495   2    938    939   2020    426 
   496   1   2019    940    941    518 
   497   2    940    941    942    967 
   498   2    941    942   2017    968 
   499   2    944    943    948    969 
   500   2    943    944    945    970 
   501   1    944    945    946   1003 
   502   2    945    946    947    971 
   503   2    946    947    948    972 
   504   3    943    948    947    930 
   505   1   1082   1081   1086   1586 
   506   2   1081   1082   1083   1087 
   507   2   1082   1083   1084   1088 
   508   3   1083   1084   1085   1637 
   509   2   1084   1085   1086   1629 
   510   2   1081   1086   1085   1090 
   511   2   1092   1091   1096   1129 
   512   3   1091   1092   1093   1097 
   513   2   1092   1093   1094   1130 
   514   2   1093   1094   1095   1131 
   515   1   1094   1095   1096   1604 
   516   2   1091   1096   1095   1132 
   517   3   1639   1098   1103   1097 
   518   2   1638   1099   1640   1133 
   519   2   1639   1100   1101   1674 
   520   1   1100   1101   1102   1591 
   521   2   1101   1102   1103   1135 
   522   2   1098   1103   1102   1136 
   523   2   1105   1104   1109   1137 
   524   2   1104   1105   1106   1138 
   525   3   1105   1106   1647   1110 
   526   2   1646   1107   1108   1139 
   527   2   1107   1108   1649   1140 
   528   3   1648   1109   1104   1097 
   529   1   1112   1111   1116   1615 
   530   2   1111   1112   1113   1141 
   531   2   1112   1113   1114   1142 
   532   3   1113   1114   1115   1110 
   533   2   1114   1115   1116   1143 
   534   2   1115   1116   1111   1144 
   535   3   1658   1117   1122   1110 
   536   2   1657   1118   1119   1145 
   537   2   1118   1119   1660     66 
   538   1   1659   1120   1121    517 
   539   2   1120   1121   1122   1147 
   540   2   1121   1122   1117   1148 
   541   2   1664   1123   1128   1149 
   542   2   1663   1124   1125   1150 
   543   1   1124   1125   1126   1609 
   544   2   1125   1126   1667   1151 
   545   2   1666   1127   1128   1152 
   546   3   1127   1128   1123   1110 
   547   1   1154   1153   1158   1556 
   548   2   1153   1154   1155   1159 
   549   2   1154   1155     76   1160 
   550   3     75   1156   1157   1169 
   551   2   1156   1157     78   1161 
   552   2   1153   1158     77   1162 
   553   2   1164   1163   1168   1201 
   554   3   1163   1164   1165   1169 
   555   2   1164   1165   1166   1202 
   556   2   1165   1166   1167   1203 
   557   1   1166   1167   1168   1574 
   558   2   1167   1168   1163   1204 
   559   3   1171   1170   1175   1169 
   560   2   1170   1171   1172   1205 
   561   2   1171   1172   1173   1206 
   562   1   1172   1173   1174   1561 
   563   2   1173   1174   1175   1207 
   564   2   1174   1175   1170   1208 
   565   2   1177   1176   1181   1209 
   566   2   1176   1177     98   1210 
   567   3     97   1178   1179    102 
   568   2   1178   1179   1180   1211 
   569   2   1179   1180    101   1212 
   570   3   1176   1181    100   1169 
   571   1   1184   1183   1188   1616 
   572   2   1183   1184   1185   1213 
   573   2   1184   1185   1186   1214 
   574   3   1185   1186   1187   1182 
   575   2   1186   1187   1188   1215 
   576   2   1187   1188   1183   1216 
   577   3   1190   1189    114    102 
   578   2   1189   1190   1731   1217 
   579   2   1730   1191   1192   1218 
   580   1   1191   1192   1193   1567 
   581   2   1192   1193    654    139 
   582   2    653   1194    109   1220 
   583   2    116   1195    120   1221 
   584   2    115   1196   1197    142 
   585   1   1196   1197   1198   1579 
   586   2   1197   1198   1199   1223 
   587   2   1198   1199   1200   1224 
   588   3   1199   1200    115    102 
   589   1   1226   1225   1230   1592 
   590   2   1225   1226   1227   1231 
   591   2   1226   1227   1228   1232 
   592   3   1227   1228   1229   1241 
   593   2   1228   1229   1230   1233 
   594   2   1229   1230   1225   1234 
   595   2   1236   1235   1240   1273 
   596   3   1235   1236   1237   1241 
   597   2   1236   1237   1238   1274 
   598   2   1237   1238   1239   1275 
   599   1   1238   1239   1240   1544 
   600   2   1239   1240   1235   1276 
   601   3   1243   1242   1247   1241 
   602   2   1242   1243   1244   1277 
   603   2   1243   1244   1245   1278 
   604   1   1244   1245   1246   1585 
   605   2   1245   1246   1247   1279 
   606   2   1242   1247   1246   1280 
   607   2   1249   1248   1253   1281 
   608   2   1248   1249   1250   1282 
   609   3   1249   1250   1251   1254 
   610   2   1250   1251   1252   1283 
   611   2   1251   1252   1253   1284 
   612   3   1248   1253   1252   1241 
   613   1   1256   1255   1260   1549 
   614   2   1255   1256   1257   1285 
   615   2   1256   1257   1258   1286 
   616   3   1257   1258   1259   1254 
   617   2   1258   1259   1260   1287 
   618   2   1255   1260   1259   1288 
   619   3   1262   1261   1266   1254 
   620   2   1261   1262   1263   1289 
   621   2   1262   1263   1264   1290 
   622   1   1263   1264   1265   1538 
   623   2   1264   1265   1266   1291 
   624   2   1261   1266   1265   1292 
   625   2   1268   1267   1272   1293 
   626   2   1267   1268   1269   1294 
   627   1   1268   1269   1270   1573 
   628   2   1269   1270   1271   1295 
   629   2   1270   1271   1272   1296 
   630   3   1267   1272   1271   1254 
   631   1   1298   1297   1302   1520 
   632   2   1297   1298   1299   1303 
   633   2   1298   1299   1300   1304 
   634   3   1299   1300   1301   1313 
   635   2   1300   1301   1302   1305 
   636   2   1297   1302   1301   1306 
   637   2   1308   1307   1312   1345 
   638   3   1307   1308   1309   1313 
   639   2   1308   1309   1310   1346 
   640   2   1309   1310   1311   1347 
   641   1   1310   1311   1312   1610 
   642   2   1307   1312   1311   1348 
   643   3   1315   1314   1319   1313 
   644   2   1314   1315   1856   1349 
   645   2   1855   1316   1857   1350 
   646   1   1856   1317   1318   2065 
   647   2   1317   1318   1319   1351 
   648   2   1318   1319   1314   1352 
   649   2   1321   1320   1325   1353 
   650   2   1320   1321   1322   1354 
   651   3   1321   1322   1323   1326 
   652   2   1322   1323   1324   1355 
   653   2   1323   1324   1325   1356 
   654   3   1324   1325   1320   1313 
   655   1   1328   1327   1332   1550 
   656   2   1327   1328   1869   1897 
   657   2   1868   1329   1870   1358 
   658   3   1869   1330   1331   1866 
   659   2   1330   1331   1332   1359 
   660   2   1331   1332   1327   1360 
   661   3   1334   1333   1338   1866 
   662   2   1333   1334   1335   1901 
   663   2   1334   1335   1336   1362 
   664   1   1335   1336   1337   1568 
   665   2   1336   1337   1338   1363 
   666   2   1333   1338   1337   1364 
   667   2   1880   1339   1884   1365 
   668   2   1879   1340   1341   1906 
   669   1   1340   1341   1342   1531 
   670   2   1341   1342   1343   1367 
   671   2   1342   1343   1344   1368 
   672   3   1343   1344   1879   1326 
   673   1   1370   1369   1374   1562 
   674   2   1369   1370   1371   1375 
   675   2   1370   1371   1372   1376 
   676   3   1371   1372   1373   1385 
   677   2   1372   1373   1374   1377 
   678   2   1369   1374   1373   1378 
   679   2   1380   1379   1384   1417 
   680   3   1379   1380   1381   1385 
   681   2   1380   1381   1382   1418 
   682   2   1381   1382   1383   1419 
   683   1   1382   1383   1384   1532 
   684   2   1383   1384   1379   1420 
   685   3   1387   1386   1391   1385 
   686   2   1386   1387   1388   1421 
   687   2   1387   1388   1389   1422 
   688   1   1388   1389   1390   1555 
   689   2   1389   1390   1391   1423 
   690   2   1390   1391   1386   1424 
   691   2   1393   1392   1397   1425 
   692   2   1392   1393   1394   1426 
   693   3   1393   1394   1395   1398 
   694   2   1394   1395   1396   1427 
   695   2   1395   1396   1397   1428 
   696   3   1396   1397   1392   1385 
   697   1   1400   1399   1404   1513 
   698   2   1399   1400   1401   1429 
   699   2   1400   1401   1402   1430 
   700   3   1401   1402   1403   1398 
   701   2   1402   1403   1404   1431 
   702   2   1403   1404   1399   1432 
   703   3   1406   1405   1410   1398 
   704   2   1405   1406   1407   1433 
   705   2   1406   1407   1408   1434 
   706   1   1407   1408   1409   1537 
   707   2   1408   1409   1410   1435 
   708   2   1409   1410   1405   1436 
   709   2   1412   1411   1416   1437 
   710   2   1411   1412   1413   1438 
   711   1   1412   1413   1414   1603 
   712   2   1413   1414   1415   1439 
   713   2   1414   1415   1416   1440 
   714   3   1415   1416   1411   1398 
   715   1   1442   1441   1446   1526 
   716   2   1441   1442   1443   1447 
   717   2   1442   1443   1444   1448 
   718   3   1443   1444   1445   1457 
   719   2   1444   1445   1446   1449 
   720   2   1441   1446   1445   1450 
   721   2   1452   1451   1456   1489 
   722   3   1451   1452   1453   1457 
   723   2   1452   1453   1454   1490 
   724   2   1453   1454   1455    411 
   725   1   1454   1455   1456    500 
   726   2   1455   1456   1451   1492 
   727   3   1459   1458   1463   1457 
   728   2   1458   1459    380    413 
   729   2    379   1460    381   1494 
   730   1    380   1461   1462    439 
   731   2   1461   1462   1463   1495 
   732   2   1458   1463   1462   1496 
   733   2   1465   1464   1469   1497 
   734   2   1464   1465   1466   1498 
   735   3   1465   1466   1467   1470 
   736   2   1466   1467   1468   1499 
   737   2   1467   1468   1469   1500 
   738   3   1468   1469   1464   1457 
   739   1    392   1471   1476   1514 
   740   2    391   1472   1473   1501 
   741   2   1472   1473   1474   1502 
   742   3   1473   1474    395   1470 
   743   2    394   1475   1476   1503 
   744   2   1475   1476   1471   1504 
   745   3   1478   1477    402   1470 
   746   2   1477   1478   1479   1505 
   747   2   1478   1479    400   2046 
   748   1    399   1480   1481   2138 
   749   2   1480   1481   1482   1507 
   750   2   1481   1482    397   1508 
   751   2   1484   1483   1488   1509 
   752   2   1483   1484   1485   1510 
   753   1   1484   1485   1486   1543 
   754   2   1485   1486   1487   1511 
   755   2   1486   1487   1488   1512 
   756   3   1483   1488   1487   1470 
   757   1   1622   1621   1626   2126 
   758   2   1621   1622   1623   1627 
   759   2   1622   1623   1624   1628 
   760   3   1623   1624   1625   1097 
   761   2   1624   1625   1626   1089 
   762   2   1621   1626   1625   1630 
   763   2   1632   1631   1636   1669 
   764   3   1631   1632   1633   1637 
   765   2   1632   1633   1634   1670 
   766   2   1633   1634   1635   1671 
   767   1   1634   1635   1636   2144 
   768   2   1631   1636   1635   1672 
   769   3   1099   1638   1643   1637 
   770   2   1098   1639   1100   1673 
   771   2   1099   1640   1641   1134 
   772   1   1640   1641   1642   2131 
   773   2   1641   1642   1643   1675 
   774   2   1638   1643   1642   1676 
   775   2   1645   1644   1649   1677 
   776   2   1644   1645   1646   1678 
   777   3   1645   1646   1107   1650 
   778   2   1106   1647   1648   1679 
   779   2   1647   1648   1109   1680 
   780   3   1108   1649   1644   1637 
   781   1   1652   1651   1656   2155 
   782   2   1651   1652   1653   1681 
   783   2   1652   1653   1654   1682 
   784   3   1653   1654   1655   1650 
   785   2   1654   1655   1656   1683 
   786   2   1655   1656   1651   1684 
   787   3   1118   1657   1662   1650 
   788   2   1117   1658   1659   1685 
   789   2   1658   1659   1120    606 
   790   1   1119   1660   1661   1057 
   791   2   1660   1661   1662   1687 
   792   2   1661   1662   1657   1688 
   793   2   1124   1663   1668   1689 
   794   2   1123   1664   1665   1690 
   795   1   1664   1665   1666   2149 
   796   2   1665   1666   1127   1691 
   797   2   1126   1667   1668   1692 
   798   3   1667   1668   1663   1650 
   799   1   1694   1693   1698   2096 
   800   2   1693   1694   1695   1699 
   801   2   1694   1695    616   1700 
   802   3    615   1696   1697   1709 
   803   2   1696   1697    618   1701 
   804   2   1693   1698    617   1702 
   805   2   1704   1703   1708   1741 
   806   3   1703   1704   1705   1709 
   807   2   1704   1705   1706   1742 
   808   2   1705   1706   1707   1743 
   809   1   1706   1707   1708   2114 
   810   2   1707   1708   1703   1744 
   811   3   1711   1710   1715   1709 
   812   2   1710   1711   1712   1745 
   813   2   1711   1712   1713   1746 
   814   1   1712   1713   1714   2101 
   815   2   1713   1714   1715   1747 
   816   2   1714   1715   1710   1748 
   817   2   1717   1716   1721   1749 
   818   2   1716   1717    638   1750 
   819   3    637   1718   1719    642 
   820   2   1718   1719   1720   1751 
   821   2   1719   1720    641   1752 
   822   3   1716   1721    640   1709 
   823   1   1724   1723   1728   2156 
   824   2   1723   1724   1725   1753 
   825   2   1724   1725   1726   1754 
   826   3   1725   1726   1727   1722 
   827   2   1726   1727   1728   1755 
   828   2   1727   1728   1723   1756 
   829   3   1730   1729    654    642 
   830   2   1729   1730   1191   1757 
   831   2   1190   1731   1732   1758 
   832   1   1731   1732   1733   2107 
   833   2   1732   1733    114    679 
   834   2    113   1734    649   1760 
   835   2    656   1735    660   1761 
   836   2    655   1736   1737    682 
   837   1   1736   1737   1738   2119 
   838   2   1737   1738   1739   1763 
   839   2   1738   1739   1740   1764 
   840   3   1739   1740    655    642 
   841   1   1766   1765   1770   2132 
   842   2   1765   1766   1767   1771 
   843   2   1766   1767   1768   1772 
   844   3   1767   1768   1769   1781 
   845   2   1768   1769   1770   1773 
   846   2   1769   1770   1765   1774 
   847   2   1776   1775   1780   1813 
   848   3   1775   1776   1777   1781 
   849   2   1776   1777   1778   1814 
   850   2   1777   1778   1779   1815 
   851   1   1778   1779   1780   2084 
   852   2   1779   1780   1775   1816 
   853   3   1783   1782   1787   1781 
   854   2   1782   1783   1784   1817 
   855   2   1783   1784   1785   1818 
   856   1   1784   1785   1786   2125 
   857   2   1785   1786   1787   1819 
   858   2   1782   1787   1786   1820 
   859   2   1789   1788   1793   1821 
   860   2   1788   1789   1790   1822 
   861   3   1789   1790   1791   1794 
   862   2   1790   1791   1792   1823 
   863   2   1791   1792   1793   1824 
   864   3   1788   1793   1792   1781 
   865   1   1796   1795   1800   2089 
   866   2   1795   1796   1797   1825 
   867   2   1796   1797   1798   1826 
   868   3   1797   1798   1799   1794 
   869   2   1798   1799   1800   1827 
   870   2   1795   1800   1799   1828 
   871   3   1802   1801   1806   1794 
   872   2   1801   1802   1803   1829 
   873   2   1802   1803   1804   1830 
   874   1   1803   1804   1805   2078 
   875   2   1804   1805   1806   1831 
   876   2   1801   1806   1805   1832 
   877   2   1808   1807   1812   1833 
   878   2   1807   1808   1809   1834 
   879   1   1808   1809   1810   2113 
   880   2   1809   1810   1811   1835 
   881   2   1810   1811   1812   1836 
   882   3   1807   1812   1811   1794 
   883   1   1838   1837   1842   2060 
   884   2   1837   1838   1839   1843 
   885   2   1838   1839   1840   1844 
   886   3   1839   1840   1841   1853 
   887   2   1840   1841   1842   1845 
   888   2   1837   1842   1841   1846 
   889   2   1848   1847   1852   1885 
   890   3   1847   1848   1849   1853 
   891   2   1848   1849   1850   1886 
   892   2   1849   1850   1851   1887 
   893   1   1850   1851   1852   2150 
   894   2   1847   1852   1851   1888 
   895   3   1855   1854   1859   1853 
   896   2   1854   1855   1316   1889 
   897   2   1315   1856   1317   1890 
   898   1   1316   1857   1858   1525 
   899   2   1857   1858   1859   1891 
   900   2   1858   1859   1854   1892 
   901   2   1861   1860   1865   1893 
   902   2   1860   1861   1862   1894 
   903   3   1861   1862   1863   1866 
   904   2   1862   1863   1864   1895 
   905   2   1863   1864   1865   1896 
   906   3   1864   1865   1860   1853 
   907   1   1868   1867   1872   2090 
   908   2   1867   1868   1329   1357 
   909   2   1328   1869   1330   1898 
   910   3   1329   1870   1871   1326 
   911   2   1870   1871   1872   1899 
   912   2   1871   1872   1867   1900 
   913   3   1874   1873   1878   1326 
   914   2   1873   1874   1875   1361 
   915   2   1874   1875   1876   1902 
   916   1   1875   1876   1877   2108 
   917   2   1876   1877   1878   1903 
   918   2   1873   1878   1877   1904 
   919   2   1340   1879   1344   1905 
   920   2   1339   1880   1881   1366 
   921   1   1880   1881   1882   2071 
   922   2   1881   1882   1883   1907 
   923   2   1882   1883   1884   1908 
   924   3   1883   1884   1339   1866 
   925   1   1910   1909   1914   2102 
   926   2   1909   1910   1911   1915 
   927   2   1910   1911   1912   1916 
   928   3   1911   1912   1913   1925 
   929   2   1912   1913   1914   1917 
   930   2   1909   1914   1913   1918 
   931   2   1920   1919   1924   1957 
   932   3   1919   1920   1921   1925 
   933   2   1920   1921   1922   1958 
   934   2   1921   1922   1923   1959 
   935   1   1922   1923   1924   2072 
   936   2   1923   1924   1919   1960 
   937   3   1927   1926   1931   1925 
   938   2   1926   1927   1928   1961 
   939   2   1927   1928   1929   1962 
   940   1   1928   1929   1930   2095 
   941   2   1929   1930   1931   1963 
   942   2   1930   1931   1926   1964 
   943   2   1933   1932   1937   1965 
   944   2   1932   1933   1934   1966 
   945   3   1933   1934   1935   1938 
   946   2   1934   1935   1936   1967 
   947   2   1935   1936   1937   1968 
   948   3   1936   1937   1932   1925 
   949   1   1940   1939   1944   2053 
   950   2   1939   1940   1941   1969 
   951   2   1940   1941   1942   1970 
   952   3   1941   1942   1943   1938 
   953   2   1942   1943   1944   1971 
   954   2   1943   1944   1939   1972 
   955   3   1946   1945   1950   1938 
   956   2   1945   1946   1947   1973 
   957   2   1946   1947   1948   1974 
   958   1   1947   1948   1949   2077 
   959   2   1948   1949   1950   1975 
   960   2   1949   1950   1945   1976 
   961   2   1952   1951   1956   1977 
   962   2   1951   1952   1953   1978 
   963   1   1952   1953   1954   2143 
   964   2   1953   1954   1955   1979 
   965   2   1954   1955   1956   1980 
   966   3   1955   1956   1951   1938 
   967   1   1982   1981   1986   2066 
   968   2   1981   1982   1983   1987 
   969   2   1982   1983   1984   1988 
   970   3   1983   1984   1985   1997 
   971   2   1984   1985   1986   1989 
   972   2   1981   1986   1985   1990 
   973   2   1992   1991   1996   2029 
   974   3   1991   1992   1993   1997 
   975   2   1992   1993   1994   2030 
   976   2   1993   1994   1995    951 
   977   1   1994   1995   1996   1040 
   978   2   1995   1996   1991   2032 
   979   3   1999   1998   2003   1997 
   980   2   1998   1999    920    953 
   981   2    919   2000    921   2034 
   982   1    920   2001   2002    979 
   983   2   2001   2002   2003   2035 
   984   2   1998   2003   2002   2036 
   985   2   2005   2004   2009   2037 
   986   2   2004   2005   2006   2038 
   987   3   2005   2006   2007   2010 
   988   2   2006   2007   2008   2039 
   989   2   2007   2008   2009   2040 
   990   3   2008   2009   2004   1997 
   991   1    932   2011   2016   2054 
   992   2    931   2012   2013   2041 
   993   2   2012   2013   2014   2042 
   994   3   2013   2014    935   2010 
   995   2    934   2015   2016   2043 
   996   2   2015   2016   2011   2044 
   997   3   2018   2017    942   2010 
   998   2   2017   2018   2019   2045 
   999   2   2018   2019    940   1506 
  1000   1    939   2020   2021   1598 
  1001   2   2020   2021   2022   2047 
  1002   2   2021   2022    937   2048 
  1003   2   2024   2023   2028   2049 
  1004   2   2023   2024   2025   2050 
  1005   1   2024   2025   2026   2083 
  1006   2   2025   2026   2027   2051 
  1007   2   2026   2027   2028   2052 
  1008   3   2023   2028   2027   2010 

