LAMMPS data file. msi2lmp v3.9.10 / 10 Mar 2023 / CGCMM for znz_1_opt

    720 atoms
    792 bonds
   1392 angles
   2232 dihedrals
    336 impropers

   4 atom types
   6 bond types
   9 angle types
  13 dihedral types
   3 improper types

    -2.245152478    27.726447522 xlo xhi
     0.067872220    26.003537250 ylo yhi
     0.380722409    44.955462651 zlo zhi
   -15.152117945     7.308323029    -3.185832277 xy xz yz

Masses

   1  12.011150 # cp
   2   1.007970 # h
   3  12.011150 # c
   4  12.011150 # c2

Pair Coeffs # lj/cut/coul/long

   1   0.1479999981   3.6170487995 # cp
   2   0.0380000011   2.4499714540 # h
   3   0.1599999990   3.4745050026 # c
   4   0.0389999952   3.8754094636 # c2

Bond Coeffs # harmonic

   1   480.0000     1.3400 # cp-cp
   2   283.0924     1.5100 # cp-c2
   3   363.4164     1.0800 # cp-h
   4   283.0924     1.5100 # cp-c
   5   322.7158     1.5260 # c2-c2
   6   340.6175     1.1050 # h-c2

Angle Coeffs # harmonic

   1    90.0000   120.0000 # cp-cp-cp
   2    44.2000   120.0000 # cp-cp-c2
   3    37.0000   120.0000 # cp-cp-h
   4    44.2000   120.0000 # cp-cp-c
   5    46.6000   110.5000 # cp-c-cp
   6    46.6000   110.5000 # cp-c2-c2
   7    44.4000   110.0000 # cp-c2-h
   8    44.4000   110.0000 # h-c2-c2
   9    39.5000   106.4000 # h-c2-h

Dihedral Coeffs # harmonic

  1     3.0000  -1   2 # cp-cp-cp-cp
  2     3.0000  -1   2 # cp-cp-cp-h
  3     3.0000  -1   2 # cp-cp-cp-c2
  4     3.0000  -1   2 # h-cp-cp-c2
  5     0.0000   1   2 # cp-cp-c2-c2
  6     0.0000   1   2 # cp-cp-c2-h
  7     3.0000  -1   2 # h-cp-cp-h
  8     3.0000  -1   2 # cp-cp-cp-c
  9     3.0000  -1   2 # h-cp-cp-c
 10     0.6750   1   4 # cp-cp-c-cp
 11     0.1581   1   3 # cp-c2-c2-cp
 12     0.1581   1   3 # cp-c2-c2-h
 13     0.1581   1   3 # h-c2-c2-h

Improper Coeffs # cvff

    1     0.3700  -1   2 # cp-cp-cp-c2
    2     0.3700  -1   2 # cp-cp-cp-h
    3     0.3700  -1   2 # cp-cp-cp-c

Atoms # full

      1      1   1  0.000000     3.264364360    -1.410940000    28.369700000   1   0   0 # cp
      2      1   1 -0.100000     4.313600000    -1.628770000    27.508300000   0   0   0 # cp
      3      1   1 -0.100000   -10.937345640    23.375600000    26.502600000   1   0   0 # cp
      4      1   1  0.000000   -12.037145640    22.524100000    26.437000000   1   0   0 # cp
      5      1   1 -0.100000    16.859154360    22.860100000    27.209200000   0   0   0 # cp
      6      1   1 -0.100000    16.929236638    23.832184647    28.174200000   0   0   0 # cp
      7      1   2  0.100000     5.210240000    -1.087820000    27.631700000   0   0   0 # h
      8      1   2  0.100000   -10.100700000    23.252300000    25.821000000   0   0   0 # h
      9      1   2  0.100000    15.910600000    22.347100000    27.135500000   0   0   0 # h
     10      1   2  0.100000    31.209804360    -1.857500000    28.711600000   0   0   0 # h
     11      1   1 -0.100000    16.943100000    19.687100000    27.302500000   0   0   0 # cp
     12      1   1  0.000000    16.855600000    20.122400000    26.007600000   0   0   0 # cp
     13      1   1 -0.100000    15.944700000    19.467700000    25.189400000   0   0   0 # cp
     14      1   1 -0.100000    15.118600000    18.454900000    25.634900000   0   0   0 # cp
     15      1   1  0.000000    15.222600000    18.072800000    26.933600000   0   0   0 # cp
     16      1   1 -0.100000    16.154300000    18.671700000    27.766500000   0   0   0 # cp
     17      1   3  0.000000    17.886754360    21.238700000    25.491200000   0   0   0 # c
     18      1   1  0.000000   -10.743845640    20.331300000    25.476400000   1   0   0 # cp
     19      1   1 -0.100000    19.394254360    19.350400000    24.532200000   0   0   0 # cp
     20      1   1 -0.100000    -9.418555640    18.683600000    24.433300000   1   0   0 # cp
     21      1   1  0.000000    -8.396195640    18.895000000    25.329800000   1   0   0 # cp
     22      1   1 -0.100000    -8.574985640    19.771200000    26.353500000   1   0   0 # cp
     23      1   1 -0.100000    -9.753855640    20.466500000    26.450700000   1   0   0 # cp
     24      1   1 -0.100000    16.258700000    22.264300000    23.769300000   0   0   0 # cp
     25      1   1 -0.100000    15.886900000    22.545000000    22.482000000   0   0   0 # cp
     26      1   1  0.000000    16.781054360    22.419700000    21.423200000   0   0   0 # cp
     27      1   1 -0.100000   -11.867345640    22.083300000    21.735900000   1   0   0 # cp
     28      1   1 -0.100000   -11.486045640    21.907300000    23.017200000   1   0   0 # cp
     29      1   1  0.000000    17.531854360    21.862000000    24.059100000   0   0   0 # cp
     30      1   3  0.000000    16.243654360    22.349000000    19.919500000   0   0   0 # c
     31      1   1  0.000000    14.866200000    18.198600000    19.817000000   0   0   0 # cp
     32      1   1 -0.100000    14.041300000    19.185800000    20.289400000   0   0   0 # cp
     33      1   1 -0.100000    14.489200000    20.484600000    20.306700000   0   0   0 # cp
     34      1   1  0.000000    15.760600000    20.842800000    19.885600000   0   0   0 # cp
     35      1   1 -0.100000    16.594800000    19.796500000    19.524000000   0   0   0 # cp
     36      1   1 -0.100000    16.137000000    18.483700000    19.428200000   0   0   0 # cp
     37      1   1  0.000000   -12.620145640    22.768500000    18.826000000   1   0   0 # cp
     38      1   1 -0.100000   -11.711945640    23.787300000    19.080700000   1   0   0 # cp
     39      1   1 -0.100000   -10.768607721    24.135534647    18.158900000   0   0   0 # cp
     40      1   1  0.000000   -10.789400000    23.613900000    16.898700000   0   0   0 # cp
     41      1   1 -0.100000   -11.759145640    22.691700000    16.588000000   1   0   0 # cp
     42      1   1 -0.100000   -12.626445640    22.233200000    17.542000000   1   0   0 # cp
     43      1   1 -0.100000    14.176000000    23.000700000    18.503900000   0   0   0 # cp
     44      1   1 -0.100000    13.173000000    23.857400000    18.146700000   0   0   0 # cp
     45      1   1  0.000000    28.184300000    -0.861831000    18.800500000   0   0   0 # cp
     46      1   1 -0.100000    29.084500000    -0.508739000    19.766900000   0   0   0 # cp
     47      1   1 -0.100000    14.965734415    24.578875030    20.090700000   0  -1   0 # cp
     48      1   1  0.000000    15.058900000    23.332600000    19.523600000   0   0   0 # cp
     49      1   2  0.100000    17.643600000    20.183900000    27.973800000   0   0   0 # h
     50      1   2  0.100000    15.913700000    19.690500000    24.137800000   0   0   0 # h
     51      1   2  0.100000    14.461000000    17.972700000    24.926500000   0   0   0 # h
     52      1   2  0.100000    16.254300000    18.369600000    28.791400000   0   0   0 # h
     53      1   2  0.100000    18.612754360    19.191800000    23.837800000   0   0   0 # h
     54      1   2  0.100000    -9.354575640    18.009200000    23.595500000   1   0   0 # h
     55      1   2  0.100000    -7.809810000    19.971700000    27.080700000   0   0   0 # h
     56      1   2  0.100000    -9.876215640    21.146300000    27.283200000   1   0   0 # h
     57      1   2  0.100000    15.457700000    22.310400000    24.502000000   0   0   0 # h
     58      1   2  0.100000    14.860700000    22.773500000    22.273400000   0   0   0 # h
     59      1   2  0.100000   -11.143745640    21.950300000    20.954800000   1   0   0 # h
     60      1   2  0.100000   -10.460845640    21.644500000    23.141900000   1   0   0 # h
     61      1   2  0.100000    13.064400000    18.957800000    20.650100000   0   0   0 # h
     62      1   2  0.100000    13.782900000    21.227800000    20.617700000   0   0   0 # h
     63      1   2  0.100000    17.634154360    19.982100000    19.264600000   0   0   0 # h
     64      1   2  0.100000    16.809600000    17.698200000    19.124500000   0   0   0 # h
     65      1   2  0.100000   -11.698377721    24.347464647    19.998600000   0   0   0 # h
     66      1   2  0.100000     5.098640000    -1.070190000    18.464900000   0   0   0 # h
     67      1   2  0.100000   -11.821545640    22.276400000    15.590800000   1   0   0 # h
     68      1   2  0.100000    16.617254360    21.482000000    17.302700000   0   0   0 # h
     69      1   2  0.100000    14.251700000    22.076900000    17.920100000   0   0   0 # h
     70      1   2  0.100000    12.486700000    23.532400000    17.364200000   0   0   0 # h
     71      1   2  0.100000    29.014618360     0.454362000    20.235400000   0   0   0 # h
     72      1   2  0.100000    30.813326360    -1.028090000    20.818700000   0   0   0 # h
     73      1   1  0.000000     3.897024360     0.747804000    41.202500000   1   0   0 # cp
     74      1   1 -0.100000     4.668044360     0.130893000    40.231300000   1   0   0 # cp
     75      1   1 -0.100000     4.111524360    -0.183311000    39.024700000   1   0   0 # cp
     76      1   1  0.000000     2.761474360     0.045941400    38.755500000   1   0   0 # cp
     77      1   1 -0.100000    32.019504360     0.726695000    39.728100000   0   0   0 # cp
     78      1   1 -0.100000     2.595644360     1.066600000    40.944400000   1   0   0 # cp
     79      1   2  0.100000     5.691540000    -0.083383000    40.457800000   0   0   0 # h
     80      1   2  0.100000     4.752504360    -0.631602000    38.282700000   1   0   0 # h
     81      1   2  0.100000    31.004884360     1.040950000    39.516300000   0   0   0 # h
     82      1   2  0.100000     1.988894360     1.560460000    41.723400000   1   0   0 # h
     83      1   1 -0.100000    30.117600000    -1.606700000    38.546200000   0   0   0 # cp
     84      1   1  0.000000    30.552500000    -0.816082000    37.492900000   0   0   0 # cp
     85      1   1 -0.100000    29.661800000    -0.538866000    36.498500000   0   0   0 # cp
     86      1   1 -0.100000    28.342100000    -0.974003000    36.565600000   0   0   0 # cp
     87      1   1  0.000000    27.986400000    -1.798580000    37.600500000   0   0   0 # cp
     88      1   1 -0.100000    28.855500000    -2.094040000    38.597300000   0   0   0 # cp
     89      1   3  0.000000    32.083444360    -0.391513000    37.371300000   0   0   0 # c
     90      1   1  0.000000    32.634104360    -1.723490000    36.720900000   0   0   0 # cp
     91      1   1 -0.100000    32.593644360    -1.942240000    35.336800000   0   0   0 # cp
     92      1   1 -0.100000    18.116466638    22.938454647    34.795600000   0   0   0 # cp
     93      1   1  0.000000    18.793254360    22.050900000    35.601500000   0   0   0 # cp
     94      1   1 -0.100000    18.654954360    22.134000000    36.956100000   0   0   0 # cp
     95      1   1 -0.100000    17.977906638    23.187384647    37.521800000   0   0   0 # cp
     96      1   1 -0.100000     1.696734360     1.925970000    36.472400000   1   0   0 # cp
     97      1   1 -0.100000     2.038834360     3.047380000    35.727500000   1   0   0 # cp
     98      1   1  0.000000     3.284870000     3.168400000    35.171400000   0   0   0 # cp
     99      1   1 -0.100000     4.160030000     2.123070000    35.347300000   0   0   0 # cp
    100      1   1 -0.100000     3.783054360     0.973452000    35.982900000   1   0   0 # cp
    101      1   1  0.000000     2.513404360     0.835380000    36.508500000   1   0   0 # cp
    102      1   3  0.000000     3.667010000     4.345210000    34.224200000   0   0   0 # c
    103      1   1  0.000000     3.009210000     1.866520000    30.641300000   0   0   0 # cp
    104      1   1 -0.100000     1.943274360     2.456750000    31.292000000   1   0   0 # cp
    105      1   1 -0.100000     2.180430000     3.239080000    32.400700000   0   0   0 # cp
    106      1   1  0.000000     3.446460000     3.557590000    32.830800000   0   0   0 # cp
    107      1   1 -0.100000     4.502350000     2.976260000    32.128900000   0   0   0 # cp
    108      1   1 -0.100000     4.283590000     2.134080000    31.085300000   0   0   0 # cp
    109      1   1  0.000000     5.094830000     5.028560000    34.414400000   0   0   0 # cp
    110      1   1 -0.100000     5.761670000     5.035780000    35.631400000   0   0   0 # cp
    111      1   1 -0.100000     6.831440000     5.860690000    35.820700000   0   0   0 # cp
    112      1   1  0.000000     7.216780000     6.777080000    34.846600000   0   0   0 # cp
    113      1   1 -0.100000     6.598130000     6.720130000    33.601500000   0   0   0 # cp
    114      1   1 -0.100000     5.574710000     5.849170000    33.402400000   0   0   0 # cp
    115      1   1 -0.100000     2.298380000     6.434010000    33.395700000   0   0   0 # cp
    116      1   1 -0.100000     1.724030000     7.658290000    33.603000000   0   0   0 # cp
    117      1   1  0.000000     1.578040000     8.137080000    34.878500000   0   0   0 # cp
    118      1   1 -0.100000     1.981610000     7.396290000    35.937200000   0   0   0 # cp
    119      1   1 -0.100000     2.630620000     6.206140000    35.740600000   0   0   0 # cp
    120      1   1  0.000000     2.776430000     5.678220000    34.452100000   0   0   0 # cp
    121      1   2  0.100000    30.825200000    -1.915020000    39.328200000   0   0   0 # h
    122      1   2  0.100000    29.967800000     0.021566600    35.636400000   0   0   0 # h
    123      1   2  0.100000    27.680000000    -0.746141000    35.757000000   0   0   0 # h
    124      1   2  0.100000    28.589100000    -2.722720000    39.430100000   0   0   0 # h
    125      1   2  0.100000    32.136444360    -1.239800000    34.644200000   0   0   0 # h
    126      1   2  0.100000    18.183954360    22.861000000    33.696000000   0   0   0 # h
    127      1   2  0.100000    19.075254360    21.364800000    37.518100000   0   0   0 # h
    128      1   2  0.100000    17.844256415    23.201465030    38.590300000   0  -1   0 # h
    129      1   2  0.100000    30.719292360     1.951950000    37.027600000   0   0   0 # h
    130      1   2  0.100000     1.284994360     3.814500000    35.665400000   1   0   0 # h
    131      1   2  0.100000     5.159920000     2.182370000    34.974000000   0   0   0 # h
    132      1   2  0.100000     4.523280000     0.207740000    36.092900000   0   0   0 # h
    133      1   2  0.100000     0.912347360     2.232800000    30.975800000   1   0   0 # h
    134      1   2  0.100000     1.315164360     3.644060000    32.896600000   1   0   0 # h
    135      1   2  0.100000     5.512420000     3.203540000    32.400200000   0   0   0 # h
    136      1   2  0.100000     5.151740000     1.717240000    30.598100000   0   0   0 # h
    137      1   2  0.100000     5.395460000     4.456250000    36.441400000   0   0   0 # h
    138      1   2  0.100000     7.302510000     5.856030000    36.784500000   0   0   0 # h
    139      1   2  0.100000     6.982810000     7.336900000    32.785500000   0   0   0 # h
    140      1   2  0.100000     5.075510000     5.870660000    32.424800000   0   0   0 # h
    141      1   2  0.100000     2.438410000     6.114830000    32.353600000   0   0   0 # h
    142      1   2  0.100000     1.291600000     8.216880000    32.761800000   0   0   0 # h
    143      1   2  0.100000     1.795420000     7.765640000    36.931100000   0   0   0 # h
    144      1   2  0.100000     3.001650000     5.672120000    36.607100000   0   0   0 # h
    145      1   1  0.000000    -6.793325640    16.892400000    27.231400000   1   0   0 # cp
    146      1   1 -0.100000    -5.922270000    17.722600000    27.909700000   0   0   0 # cp
    147      1   1 -0.100000    -5.940870000    17.732100000    29.292000000   0   0   0 # cp
    148      1   1  0.000000    -6.763545640    16.865300000    30.009500000   1   0   0 # cp
    149      1   1 -0.100000    -7.534695640    15.989800000    29.300500000   1   0   0 # cp
    150      1   1 -0.100000    -7.582995640    16.018900000    27.927900000   1   0   0 # cp
    151      1   2  0.100000    -5.245580000    18.413800000    27.456800000   0   0   0 # h
    152      1   2  0.100000    -5.224620000    18.385000000    29.783200000   0   0   0 # h
    153      1   2  0.100000    21.786384360    15.310600000    29.805500000   0   0   0 # h
    154      1   2  0.100000    21.758414360    15.314300000    27.403400000   0   0   0 # h
    155      1   1 -0.100000    20.779900000    16.154800000    32.078500000   0   0   0 # cp
    156      1   1  0.000000    22.130194360    16.136400000    32.415300000   0   0   0 # cp
    157      1   1 -0.100000    22.462934360    15.657100000    33.671300000   0   0   0 # cp
    158      1   1 -0.100000    21.509100000    15.275600000    34.578100000   0   0   0 # cp
    159      1   1  0.000000    20.181300000    15.242000000    34.189200000   0   0   0 # cp
    160      1   1 -0.100000    19.812800000    15.705300000    32.942700000   0   0   0 # cp
    161      1   3  0.000000    -6.712465640    16.924600000    31.597200000   1   0   0 # c
    162      1   1  0.000000    -7.067625640    18.394100000    32.139700000   1   0   0 # cp
    163      1   1 -0.100000    -6.650100000    18.761600000    33.419600000   0   0   0 # cp
    164      1   1 -0.100000    -7.209580000    19.830700000    34.076300000   0   0   0 # cp
    165      1   1  0.000000    -8.212745640    20.538600000    33.468300000   1   0   0 # cp
    166      1   1 -0.100000    -8.561395640    20.245900000    32.158000000   1   0   0 # cp
    167      1   1 -0.100000    -8.016985640    19.192000000    31.507200000   1   0   0 # cp
    168      1   1 -0.100000    -4.953455640    15.041600000    31.894200000   1   0   0 # cp
    169      1   1 -0.100000    -3.859290000    14.591700000    32.581600000   0   0   0 # cp
    170      1   1  0.000000    -3.038440000    15.489600000    33.215100000   0   0   0 # cp
    171      1   1 -0.100000    -3.099150000    16.807800000    32.798100000   0   0   0 # cp
    172      1   1 -0.100000    -4.172770000    17.246900000    32.088100000   0   0   0 # cp
    173      1   1  0.000000    -5.218270000    16.390500000    31.827900000   0   0   0 # cp
    174      1   3  0.000000    -2.302840000    15.104800000    34.564400000   0   0   0 # c
    175      1   1  0.000000    -5.268810000    16.922000000    37.219500000   0   0   0 # cp
    176      1   1 -0.100000    -5.425085640    15.641500000    36.730200000   1   0   0 # cp
    177      1   1 -0.100000    -4.466625640    15.107400000    35.911200000   1   0   0 # cp
    178      1   1  0.000000    -3.335690000    15.801000000    35.581900000   0   0   0 # cp
    179      1   1 -0.100000    -3.256280000    17.128500000    35.998000000   0   0   0 # cp
    180      1   1 -0.100000    -4.192260000    17.673400000    36.844900000   0   0   0 # cp
    181      1   1  0.000000    -0.868595000    15.697900000    34.705900000   0   0   0 # cp
    182      1   1 -0.100000     0.006443920    15.795300000    33.644600000   0   0   0 # cp
    183      1   1 -0.100000     1.321370000    16.154800000    33.851100000   0   0   0 # cp
    184      1   1  0.000000     1.792140000    16.316500000    35.127600000   0   0   0 # cp
    185      1   1 -0.100000     0.945560000    16.216100000    36.176100000   0   0   0 # cp
    186      1   1 -0.100000    -0.351626000    15.909000000    35.984500000   0   0   0 # cp
    187      1   1 -0.100000    -2.030200000    12.922800000    35.987100000   0   0   0 # cp
    188      1   1 -0.100000    -1.580740000    11.641400000    36.197500000   0   0   0 # cp
    189      1   1  0.000000    -1.000690000    10.964600000    35.159000000   0   0   0 # cp
    190      1   1 -0.100000    -0.919451000    11.538400000    33.901600000   0   0   0 # cp
    191      1   1 -0.100000    -1.322760000    12.826100000    33.717600000   0   0   0 # cp
    192      1   1  0.000000    -1.922100000    13.547900000    34.739200000   0   0   0 # cp
    193      1   2  0.100000    20.480900000    16.628400000    31.152400000   0   0   0 # h
    194      1   2  0.100000    -6.513605640    15.676300000    34.076800000   1   0   0 # h
    195      1   2  0.100000    21.785200000    14.946600000    35.572600000   0   0   0 # h
    196      1   2  0.100000    18.759100000    15.763600000    32.670900000   0   0   0 # h
    197      1   2  0.100000    -6.027470000    18.108800000    34.007400000   0   0   0 # h
    198      1   2  0.100000    -6.936120000    20.060300000    35.095600000   0   0   0 # h
    199      1   2  0.100000    -9.413465640    20.717000000    31.665100000   1   0   0 # h
    200      1   2  0.100000    -8.373815640    18.927400000    30.536900000   1   0   0 # h
    201      1   2  0.100000    -5.737685640    14.345900000    31.587700000   1   0   0 # h
    202      1   2  0.100000    -3.843970000    13.562300000    32.778400000   0   0   0 # h
    203      1   2  0.100000    -2.416000000    17.536900000    33.208600000   0   0   0 # h
    204      1   2  0.100000    -4.266830000    18.297400000    31.995400000   0   0   0 # h
    205      1   2  0.100000    -6.266705640    15.057600000    37.027500000   1   0   0 # h
    206      1   2  0.100000    -4.594105640    14.120900000    35.529300000   1   0   0 # h
    207      1   2  0.100000    -2.457130000    17.792800000    35.693000000   0   0   0 # h
    208      1   2  0.100000    -4.101810000    18.678800000    37.174200000   0   0   0 # h
    209      1   2  0.100000    -0.321828000    15.578300000    32.642800000   0   0   0 # h
    210      1   2  0.100000     2.007350000    16.199700000    33.035600000   0   0   0 # h
    211      1   2  0.100000     1.353920000    16.287400000    37.156400000   0   0   0 # h
    212      1   2  0.100000    -0.950609000    15.743800000    36.866900000   0   0   0 # h
    213      1   2  0.100000    -2.440260000    13.459600000    36.844800000   0   0   0 # h
    214      1   2  0.100000    -1.625020000    11.213100000    37.203700000   0   0   0 # h
    215      1   2  0.100000    -0.435959000    11.007400000    33.100100000   0   0   0 # h
    216      1   2  0.100000    -1.205950000    13.248000000    32.735200000   0   0   0 # h
    217      1   1  0.000000    12.037200000    16.423200000    39.530600000   0   0   0 # cp
    218      1   1 -0.100000    12.229700000    15.092700000    39.304000000   0   0   0 # cp
    219      1   1 -0.100000    11.399200000    14.409200000    38.437900000   0   0   0 # cp
    220      1   1  0.000000    10.345400000    15.045800000    37.800400000   0   0   0 # cp
    221      1   1 -0.100000    10.137500000    16.378200000    38.101300000   0   0   0 # cp
    222      1   1 -0.100000    11.002100000    17.054900000    38.913400000   0   0   0 # cp
    223      1   2  0.100000    13.087500000    14.585500000    39.662800000   0   0   0 # h
    224      1   2  0.100000    11.680900000    13.419800000    38.186500000   0   0   0 # h
    225      1   2  0.100000     9.347190000    16.937300000    37.656300000   0   0   0 # h
    226      1   2  0.100000    10.866100000    18.121400000    39.086400000   0   0   0 # h
    227      1   1 -0.100000     7.260630000    14.916700000    37.486000000   0   0   0 # cp
    228      1   1  0.000000     8.088850000    14.743100000    36.380300000   0   0   0 # cp
    229      1   1 -0.100000     7.506030000    14.781800000    35.108800000   0   0   0 # cp
    230      1   1 -0.100000     6.163410000    15.012700000    34.953800000   0   0   0 # cp
    231      1   1  0.000000     5.382960000    15.161100000    36.065800000   0   0   0 # cp
    232      1   1 -0.100000     5.921060000    15.088700000    37.345000000   0   0   0 # cp
    233      1   3  0.000000     9.645380000    14.420900000    36.507700000   0   0   0 # c
    234      1   1  0.000000     9.574720000    12.822600000    36.498000000   0   0   0 # cp
    235      1   1 -0.100000     9.659870000    12.134700000    35.316600000   0   0   0 # cp
    236      1   1 -0.100000     9.296600000    10.826100000    35.193300000   0   0   0 # cp
    237      1   1  0.000000     8.792120000    10.158300000    36.293600000   0   0   0 # cp
    238      1   1 -0.100000     8.821570000    10.779100000    37.530000000   0   0   0 # cp
    239      1   1 -0.100000     9.213870000    12.081600000    37.617900000   0   0   0 # cp
    240      1   1 -0.100000    10.233100000    16.380800000    34.909800000   0   0   0 # cp
    241      1   1 -0.100000    11.189500000    17.208800000    34.397600000   0   0   0 # cp
    242      1   1  0.000000    12.508500000    16.813300000    34.416300000   0   0   0 # cp
    243      1   1 -0.100000    12.768200000    15.455200000    34.619700000   0   0   0 # cp
    244      1   1 -0.100000    11.790600000    14.626600000    35.086300000   0   0   0 # cp
    245      1   1  0.000000    10.549400000    15.130500000    35.374100000   0   0   0 # cp
    246      1   3  0.000000    13.635600000    17.910300000    34.147300000   0   0   0 # c
    247      1   1  0.000000    13.439100000    17.579300000    29.855700000   0   0   0 # cp
    248      1   1 -0.100000    12.818800000    18.620100000    30.484400000   0   0   0 # cp
    249      1   1 -0.100000    12.827200000    18.713700000    31.831700000   0   0   0 # cp
    250      1   1  0.000000    13.624100000    17.862100000    32.594900000   0   0   0 # cp
    251      1   1 -0.100000    14.280400000    16.834800000    31.933300000   0   0   0 # cp
    252      1   1 -0.100000    14.218200000    16.708300000    30.589600000   0   0   0 # cp
    253      1   1  0.000000    15.036900000    17.577000000    34.863200000   0   0   0 # cp
    254      1   1 -0.100000    15.164200000    16.901400000    36.086700000   0   0   0 # cp
    255      1   1 -0.100000    16.386200000    16.436000000    36.504300000   0   0   0 # cp
    256      1   1  0.000000    17.508300000    16.745000000    35.796900000   0   0   0 # cp
    257      1   1 -0.100000    17.405000000    17.558300000    34.680700000   0   0   0 # cp
    258      1   1 -0.100000    16.204000000    17.981000000    34.257600000   0   0   0 # cp
    259      1   1 -0.100000    13.581800000    20.535200000    34.312800000   0   0   0 # cp
    260      1   1 -0.100000    13.003900000    21.662000000    34.851600000   0   0   0 # cp
    261      1   1  0.000000    12.165900000    21.561500000    35.936000000   0   0   0 # cp
    262      1   1 -0.100000    12.021600000    20.365100000    36.578300000   0   0   0 # cp
    263      1   1 -0.100000    12.679000000    19.279000000    36.098400000   0   0   0 # cp
    264      1   1  0.000000    13.318900000    19.296300000    34.864900000   0   0   0 # cp
    265      1   2  0.100000     7.672450000    14.851300000    38.489000000   0   0   0 # h
    266      1   2  0.100000     8.110560000    14.575100000    34.241700000   0   0   0 # h
    267      1   2  0.100000     5.714950000    14.933100000    33.973600000   0   0   0 # h
    268      1   2  0.100000     5.323980000    15.144800000    38.236500000   0   0   0 # h
    269      1   2  0.100000     9.904800000    12.656400000    34.386800000   0   0   0 # h
    270      1   2  0.100000     9.189710000    10.378500000    34.218300000   0   0   0 # h
    271      1   2  0.100000     8.366860000    10.299900000    38.384800000   0   0   0 # h
    272      1   2  0.100000     9.092820000    12.614000000    38.573500000   0   0   0 # h
    273      1   2  0.100000     9.269760000    16.859700000    35.095800000   0   0   0 # h
    274      1   2  0.100000    10.907000000    18.195500000    34.053800000   0   0   0 # h
    275      1   2  0.100000    13.757000000    15.044800000    34.495200000   0   0   0 # h
    276      1   2  0.100000    12.080100000    13.647400000    35.452400000   0   0   0 # h
    277      1   2  0.100000    12.204200000    19.318100000    29.956800000   0   0   0 # h
    278      1   2  0.100000    12.137400000    19.402000000    32.289800000   0   0   0 # h
    279      1   2  0.100000    14.869000000    16.114900000    32.448800000   0   0   0 # h
    280      1   2  0.100000    14.719300000    15.849200000    30.160500000   0   0   0 # h
    281      1   2  0.100000    14.338300000    16.587300000    36.666900000   0   0   0 # h
    282      1   2  0.100000    16.401700000    15.746600000    37.367400000   0   0   0 # h
    283      1   2  0.100000    18.266000000    17.830200000    34.093500000   0   0   0 # h
    284      1   2  0.100000    16.182400000    18.538600000    33.326400000   0   0   0 # h
    285      1   2  0.100000    14.139500000    20.638200000    33.411800000   0   0   0 # h
    286      1   2  0.100000    13.165800000    22.621900000    34.371400000   0   0   0 # h
    287      1   2  0.100000    11.377300000    20.298500000    37.429000000   0   0   0 # h
    288      1   2  0.100000    12.549600000    18.316400000    36.602000000   0   0   0 # h
    289      1   1  0.000000    -9.024880000    22.524400000     4.246740000   0   0   0 # cp
    290      1   1 -0.100000    -8.376540000    23.627300000     4.684510000   0   0   0 # cp
    291      1   1 -0.100000    -8.475970000    23.994300000     5.992600000   0   0   0 # cp
    292      1   1  0.000000    -9.255800000    23.273400000     6.873960000   0   0   0 # cp
    293      1   1 -0.100000    -9.917120000    22.160000000     6.401640000   0   0   0 # cp
    294      1   1 -0.100000    -9.813940000    21.782800000     5.106340000   0   0   0 # cp
    295      1   2  0.100000    -7.788020000    24.222700000     3.988020000   0   0   0 # h
    296      1   2  0.100000    -7.981650000    24.903000000     6.356180000   0   0   0 # h
    297      1   2  0.100000   -10.686300000    21.711000000     7.027520000   0   0   0 # h
    298      1   2  0.100000   -10.366800000    20.916300000     4.785950000   0   0   0 # h
    299      1   1 -0.100000    -8.757750000    21.752300000     9.462670000   0   0   0 # cp
    300      1   1  0.000000    -9.698210000    22.788400000     9.462320000   0   0   0 # cp
    301      1   1 -0.100000   -10.390100000    23.032700000    10.640500000   0   0   0 # cp
    302      1   1 -0.100000   -10.244400000    22.225600000    11.749400000   0   0   0 # cp
    303      1   1  0.000000    -9.364680000    21.159200000    11.695700000   0   0   0 # cp
    304      1   1 -0.100000    -8.598250000    20.961100000    10.564800000   0   0   0 # cp
    305      1   3  0.000000    -9.663220000    23.883800000     8.328340000   0   0   0 # c
    306      1   1  0.000000   -11.044100000    24.622800000     7.898480000   0   0   0 # cp
    307      1   1 -0.100000     4.177550000    -0.099475800     7.205440000   0   0   0 # cp
    308      1   1 -0.100000     3.067370000     0.447272000     6.657270000   0   0   0 # cp
    309      1   1  0.000000     1.822760000    -0.103687000     6.879900000   0   0   0 # cp
    310      1   1 -0.100000   -13.422700000    24.652900000     7.566120000   0   0   0 # cp
    311      1   1 -0.100000   -12.293400000    24.018400000     8.045250000   0   0   0 # cp
    312      1   1 -0.100000     6.058840000    -0.012567300     9.915620000   0   0   0 # cp
    313      1   1 -0.100000     6.942310000     0.777847000    10.630000000   0   0   0 # cp
    314      1   1  0.000000     8.322620000     0.518185000    10.613100000   0   0   0 # cp
    315      1   1 -0.100000     8.747950000    -0.491276000     9.788660000   0   0   0 # cp
    316      1   1 -0.100000    -7.279290000    24.687200000     9.019990000   0   0   0 # cp
    317      1   1  0.000000    -8.624827721    24.887244647     9.085260000   0   0   0 # cp
    318      1   3  0.000000     9.262380000     1.231530000    11.671200000   0   0   0 # c
    319      1   1  0.000000     7.537010000    -0.730662000    15.126600000   0   0   0 # cp
    320      1   1 -0.100000    -6.848310000    24.487500000    14.246800000   0   0   0 # cp
    321      1   1 -0.100000     8.950400000    -0.796375000    13.235900000   0   0   0 # cp
    322      1   1  0.000000     8.754020000     0.566983000    13.032600000   0   0   0 # cp
    323      1   1 -0.100000     7.997850000     1.257450000    13.968500000   0   0   0 # cp
    324      1   1 -0.100000     7.391330000     0.625680000    15.003300000   0   0   0 # cp
    325      1   1  0.000000     9.157720000     2.805820000    11.669700000   0   0   0 # cp
    326      1   1 -0.100000     8.617060000     3.537290000    10.618200000   0   0   0 # cp
    327      1   1 -0.100000     8.782150000     4.902120000    10.564300000   0   0   0 # cp
    328      1   1  0.000000     9.492200000     5.559010000    11.555300000   0   0   0 # cp
    329      1   1 -0.100000     9.949150000     4.832160000    12.647300000   0   0   0 # cp
    330      1   1 -0.100000     9.768110000     3.480310000    12.705300000   0   0   0 # cp
    331      1   1 -0.100000    11.735400000     0.618188000    12.311800000   0   0   0 # cp
    332      1   1 -0.100000    13.082300000     0.741033000    12.075500000   0   0   0 # cp
    333      1   1  0.000000    13.548100000     1.182990000    10.848500000   0   0   0 # cp
    334      1   1 -0.100000    12.641100000     1.508450000     9.861430000   0   0   0 # cp
    335      1   1 -0.100000    11.292800000     1.395260000    10.118500000   0   0   0 # cp
    336      1   1  0.000000    10.819000000     1.007640000    11.367400000   0   0   0 # cp
    337      1   2  0.100000    -8.146150000    21.535300000     8.592520000   0   0   0 # h
    338      1   2  0.100000   -11.045800000    23.892200000    10.698000000   0   0   0 # h
    339      1   2  0.100000   -10.831100000    22.496900000    12.635600000   0   0   0 # h
    340      1   2  0.100000    -7.909550000    20.158600000    10.506900000   0   0   0 # h
    341      1   2  0.100000     5.109550000     0.374605000     6.992860000   0   0   0 # h
    342      1   2  0.100000     3.145750000     1.384850000     6.103030000   0   0   0 # h
    343      1   2  0.100000   -14.395345640    24.199400000     7.788460000   1   0   0 # h
    344      1   2  0.100000   -12.389100000    23.059500000     8.541530000   0   0   0 # h
    345      1   2  0.100000     5.005330000     0.165499000    10.019200000   0   0   0 # h
    346      1   2  0.100000     6.519020000     1.506060000    11.320100000   0   0   0 # h
    347      1   2  0.100000    -5.367277721    25.214259647     9.719740000   0   0   0 # h
    348      1   2  0.100000    -6.866190000    23.872000000     8.445910000   0   0   0 # h
    349      1   2  0.100000    -6.757190000    23.411900000    14.302500000   0   0   0 # h
    350      1   2  0.100000    -5.669420000    24.569200000    12.488300000   0   0   0 # h
    351      1   2  0.100000     7.834840000     2.331600000    13.897900000   0   0   0 # h
    352      1   2  0.100000     6.752240000     1.197170000    15.670900000   0   0   0 # h
    353      1   2  0.100000     8.144040000     3.037910000     9.784240000   0   0   0 # h
    354      1   2  0.100000     8.396630000     5.424500000     9.692680000   0   0   0 # h
    355      1   2  0.100000    10.570500000     5.239970000    13.415200000   0   0   0 # h
    356      1   2  0.100000    10.210300000     2.917170000    13.491100000   0   0   0 # h
    357      1   2  0.100000    11.440600000     0.423473000    13.314200000   0   0   0 # h
    358      1   2  0.100000    13.778200000     0.515401000    12.880400000   0   0   0 # h
    359      1   2  0.100000    12.988100000     1.873820000     8.911630000   0   0   0 # h
    360      1   2  0.100000    10.586000000     1.701120000     9.361840000   0   0   0 # h
    361      1   1  0.000000    13.576100000    14.580500000     6.572260000   0   0   0 # cp
    362      1   1 -0.100000    12.545300000    14.144900000     7.388990000   0   0   0 # cp
    363      1   1 -0.100000    12.800700000    13.204300000     8.352190000   0   0   0 # cp
    364      1   1  0.000000    14.089300000    12.742900000     8.600340000   0   0   0 # cp
    365      1   1 -0.100000    15.063900000    13.114200000     7.706780000   0   0   0 # cp
    366      1   1 -0.100000    14.789600000    13.988900000     6.685290000   0   0   0 # cp
    367      1   2  0.100000    11.545800000    14.574400000     7.279250000   0   0   0 # h
    368      1   2  0.100000    12.023600000    12.934000000     9.074640000   0   0   0 # h
    369      1   2  0.100000    16.077600000    12.744500000     7.788840000   0   0   0 # h
    370      1   2  0.100000    15.631700000    14.282500000     6.082480000   0   0   0 # h
    371      1   1 -0.100000    15.980500000    10.162700000     8.784070000   0   0   0 # cp
    372      1   1  0.000000    15.762500000    10.973600000     9.882000000   0   0   0 # cp
    373      1   1 -0.100000    16.555600000    10.753100000    11.019100000   0   0   0 # cp
    374      1   1 -0.100000    17.461100000     9.708270000    11.056600000   0   0   0 # cp
    375      1   1  0.000000    17.581100000     8.865000000     9.978690000   0   0   0 # cp
    376      1   1 -0.100000    16.869400000     9.113560000     8.828950000   0   0   0 # cp
    377      1   3  0.000000    14.448300000    11.900600000     9.927590000   0   0   0 # c
    378      1   1  0.000000    13.376300000    10.775100000    10.305200000   0   0   0 # cp
    379      1   1 -0.100000    13.312400000    10.200700000    11.532300000   0   0   0 # cp
    380      1   1 -0.100000    12.620700000     9.070830000    11.761800000   0   0   0 # cp
    381      1   1  0.000000    11.915100000     8.465000000    10.757200000   0   0   0 # cp
    382      1   1 -0.100000    11.920500000     9.029730000     9.495500000   0   0   0 # cp
    383      1   1 -0.100000    12.659000000    10.165500000     9.281600000   0   0   0 # cp
    384      1   1 -0.100000    15.734200000    13.906900000    10.813500000   0   0   0 # cp
    385      1   1 -0.100000    15.857600000    15.090500000    11.514300000   0   0   0 # cp
    386      1   1  0.000000    14.884700000    15.459900000    12.418500000   0   0   0 # cp
    387      1   1 -0.100000    13.791800000    14.633600000    12.584400000   0   0   0 # cp
    388      1   1 -0.100000    13.680800000    13.459500000    11.874300000   0   0   0 # cp
    389      1   1  0.000000    14.627400000    13.067600000    10.964100000   0   0   0 # cp
    390      1   3  0.000000    14.813200000    16.927100000    13.054600000   0   0   0 # c
    391      1   1  0.000000    13.645000000    16.731800000    17.275900000   0   0   0 # cp
    392      1   1 -0.100000    14.433200000    15.755200000    16.705900000   0   0   0 # cp
    393      1   1 -0.100000    14.752700000    15.827700000    15.372700000   0   0   0 # cp
    394      1   1  0.000000    14.314000000    16.885500000    14.550400000   0   0   0 # cp
    395      1   1 -0.100000    13.556500000    17.869700000    15.182300000   0   0   0 # cp
    396      1   1 -0.100000    13.277800000    17.821200000    16.544100000   0   0   0 # cp
    397      1   1  0.000000    13.846300000    17.603500000    11.944400000   0   0   0 # cp
    398      1   1 -0.100000    14.433800000    18.207800000    10.851300000   0   0   0 # cp
    399      1   1 -0.100000    13.698300000    18.838600000     9.880340000   0   0   0 # cp
    400      1   1  0.000000    12.341500000    18.747300000     9.902890000   0   0   0 # cp
    401      1   1 -0.100000    11.736600000    18.052800000    10.916800000   0   0   0 # cp
    402      1   1 -0.100000    12.456300000    17.537800000    11.954700000   0   0   0 # cp
    403      1   1 -0.100000    16.112600000    19.126500000    13.445100000   0   0   0 # cp
    404      1   1 -0.100000    17.255454360    19.884200000    13.587600000   0   0   0 # cp
    405      1   1  0.000000   -11.479645640    19.275300000    13.615400000   1   0   0 # cp
    406      1   1 -0.100000    18.576154360    17.927800000    13.452500000   0   0   0 # cp
    407      1   1 -0.100000    17.435100000    17.182300000    13.290900000   0   0   0 # cp
    408      1   1  0.000000    16.167900000    17.748500000    13.240200000   0   0   0 # cp
    409      1   2  0.100000    15.341900000    10.242700000     7.922340000   0   0   0 # h
    410      1   2  0.100000    16.383000000    11.277700000    11.938300000   0   0   0 # h
    411      1   2  0.100000    18.008300000     9.447250000    11.961700000   0   0   0 # h
    412      1   2  0.100000    16.919400000     8.421100000     7.997830000   0   0   0 # h
    413      1   2  0.100000    13.891100000    10.618800000    12.307500000   0   0   0 # h
    414      1   2  0.100000    12.682800000     8.640310000    12.764200000   0   0   0 # h
    415      1   2  0.100000    11.376600000     8.590030000     8.678260000   0   0   0 # h
    416      1   2  0.100000    12.690200000    10.513000000     8.262690000   0   0   0 # h
    417      1   2  0.100000    16.501000000    13.666200000    10.058200000   0   0   0 # h
    418      1   2  0.100000    16.675800000    15.738500000    11.242600000   0   0   0 # h
    419      1   2  0.100000    12.965800000    14.893800000    13.247600000   0   0   0 # h
    420      1   2  0.100000    12.817700000    12.879100000    12.017600000   0   0   0 # h
    421      1   2  0.100000    14.750500000    14.907200000    17.282800000   0   0   0 # h
    422      1   2  0.100000    15.414200000    15.063800000    14.994800000   0   0   0 # h
    423      1   2  0.100000    13.170800000    18.688700000    14.635400000   0   0   0 # h
    424      1   2  0.100000    12.768100000    18.669500000    17.033000000   0   0   0 # h
    425      1   2  0.100000    15.493600000    18.305400000    10.721500000   0   0   0 # h
    426      1   2  0.100000    14.212500000    19.340500000     9.088590000   0   0   0 # h
    427      1   2  0.100000    10.661000000    17.996200000    10.926900000   0   0   0 # h
    428      1   2  0.100000    11.972000000    16.990800000    12.733000000   0   0   0 # h
    429      1   2  0.100000    15.136200000    19.654400000    13.420300000   0   0   0 # h
    430      1   2  0.100000   -12.788045640    20.966600000    13.753200000   1   0   0 # h
    431      1   2  0.100000   -10.452045640    17.458500000    13.510500000   1   0   0 # h
    432      1   2  0.100000    17.501600000    16.107800000    13.328300000   0   0   0 # h
    433      1   1  0.000000    27.231800000     0.565987000    15.640800000   0   0   0 # cp
    434      1   1 -0.100000    27.681264360     1.429700000    14.680100000   0   0   0 # cp
    435      1   1 -0.100000    27.485700000     1.166330000    13.360800000   0   0   0 # cp
    436      1   1  0.000000    26.785800000     0.017195100    12.945800000   0   0   0 # cp
    437      1   1 -0.100000    26.314400000    -0.824693000    13.946000000   0   0   0 # cp
    438      1   1 -0.100000    26.565200000    -0.572146000    15.269500000   0   0   0 # cp
    439      1   2  0.100000    28.154894360     2.356530000    14.925900000   0   0   0 # h
    440      1   2  0.100000    27.755394360     1.947910000    12.675700000   0   0   0 # h
    441      1   2  0.100000    10.628700000    24.203700000    13.693800000   0   0   0 # h
    442      1   2  0.100000    11.027482279    24.694804647    16.025200000   0   0   0 # h
    443      1   1 -0.100000    11.693800000    23.205800000    11.383800000   0   0   0 # cp
    444      1   1  0.000000    11.072000000    24.305700000    10.813700000   0   0   0 # cp
    445      1   1 -0.100000    10.368000000    24.070400000     9.633890000   0   0   0 # cp
    446      1   1 -0.100000    10.241200000    22.826400000     9.087920000   0   0   0 # cp
    447      1   1  0.000000    10.727900000    21.730100000     9.778660000   0   0   0 # cp
    448      1   1 -0.100000    11.486400000    21.930800000    10.905400000   0   0   0 # cp
    449      1   3  0.000000    26.356600000    -0.173902000    11.432000000   0   0   0 # c
    450      1   1  0.000000    27.390400000     0.385992000    10.337400000   0   0   0 # cp
    451      1   1 -0.100000    26.963900000     0.938716000     9.134040000   0   0   0 # cp
    452      1   1 -0.100000    27.833294360     1.401050000     8.182210000   0   0   0 # cp
    453      1   1  0.000000    -0.790726640     1.306030000     8.376800000   1   0   0 # cp
    454      1   1 -0.100000    -0.339029640     0.843576000     9.570590000   1   0   0 # cp
    455      1   1 -0.100000    28.751124360     0.382944000    10.526600000   0   0   0 # cp
    456      1   1 -0.100000    23.770600000    -0.230916000    11.629200000   0   0   0 # cp
    457      1   1 -0.100000    22.596400000     0.248639000    11.167200000   0   0   0 # cp
    458      1   1  0.000000    22.510200000     1.538330000    10.668700000   0   0   0 # cp
    459      1   1 -0.100000    23.580700000     2.380300000    10.876600000   0   0   0 # cp
    460      1   1 -0.100000    24.784900000     1.885340000    11.290600000   0   0   0 # cp
    461      1   1  0.000000    24.923100000     0.520084000    11.504400000   0   0   0 # cp
    462      1   3  0.000000    21.410600000     1.905670000     9.609430000   0   0   0 # c
    463      1   1  0.000000    23.722100000     0.148714000     6.320060000   0   0   0 # cp
    464      1   1 -0.100000     7.687382279    25.307680647     7.061860000   0   0   0 # cp
    465      1   1 -0.100000    22.104600000    -0.042034600     8.044190000   0   0   0 # cp
    466      1   1  0.000000    22.163700000     1.306160000     8.332640000   0   0   0 # cp
    467      1   1 -0.100000    23.001900000     2.072420000     7.556110000   0   0   0 # cp
    468      1   1 -0.100000    23.758500000     1.512560000     6.550510000   0   0   0 # cp
    469      1   1  0.000000    21.051000000     3.475980000     9.604160000   0   0   0 # cp
    470      1   1 -0.100000    20.973500000     4.240270000    10.754900000   0   0   0 # cp
    471      1   1 -0.100000    20.614300000     5.562270000    10.696600000   0   0   0 # cp
    472      1   1  0.000000    20.211000000     6.120250000     9.487550000   0   0   0 # cp
    473      1   1 -0.100000    20.298000000     5.375020000     8.336550000   0   0   0 # cp
    474      1   1 -0.100000    20.688100000     4.068190000     8.379270000   0   0   0 # cp
    475      1   1 -0.100000    19.196000000     0.966494000     8.797810000   0   0   0 # cp
    476      1   1 -0.100000    17.878800000     0.656321000     8.947590000   0   0   0 # cp
    477      1   1  0.000000    17.341800000     0.564562000    10.227400000   0   0   0 # cp
    478      1   1 -0.100000    18.115300000     0.862059000    11.312000000   0   0   0 # cp
    479      1   1 -0.100000    19.398900000     1.270740000    11.148400000   0   0   0 # cp
    480      1   1  0.000000    19.975700000     1.304620000     9.877620000   0   0   0 # cp
    481      1   2  0.100000    12.308400000    23.305800000    12.268300000   0   0   0 # h
    482      1   2  0.100000     9.892040000    24.874000000     9.091750000   0   0   0 # h
    483      1   2  0.100000     9.641990000    22.666900000     8.227350000   0   0   0 # h
    484      1   2  0.100000    11.948600000    21.140500000    11.498800000   0   0   0 # h
    485      1   2  0.100000    25.915800000     0.994304000     8.905240000   0   0   0 # h
    486      1   2  0.100000    27.409064360     1.883320000     7.317380000   0   0   0 # h
    487      1   2  0.100000     0.734796000     0.856760000     9.761810000   0   0   0 # h
    488      1   2  0.100000    -0.824727640    -0.014917100    11.427600000   1   0   0 # h
    489      1   2  0.100000     8.671460000    24.669500000    11.893700000   0   0   0 # h
    490      1   2  0.100000    21.755300000    -0.426333000    11.113000000   0   0   0 # h
    491      1   2  0.100000    23.591500000     3.384860000    10.525400000   0   0   0 # h
    492      1   2  0.100000    25.676800000     2.475580000    11.168200000   0   0   0 # h
    493      1   2  0.100000     7.579010000    24.247000000     6.868110000   0   0   0 # h
    494      1   2  0.100000     6.338282279    25.190723647     8.612280000   0   0   0 # h
    495      1   2  0.100000    23.101800000     3.120470000     7.765570000   0   0   0 # h
    496      1   2  0.100000    24.426300000     2.125160000     5.958950000   0   0   0 # h
    497      1   2  0.100000    21.223100000     3.777870000    11.710100000   0   0   0 # h
    498      1   2  0.100000    20.587100000     6.158490000    11.616900000   0   0   0 # h
    499      1   2  0.100000    19.993300000     5.780710000     7.407170000   0   0   0 # h
    500      1   2  0.100000    20.666500000     3.497200000     7.472410000   0   0   0 # h
    501      1   2  0.100000    19.565200000     1.052380000     7.772730000   0   0   0 # h
    502      1   2  0.100000    17.278500000     0.469275000     8.092770000   0   0   0 # h
    503      1   2  0.100000    17.665700000     0.802953000    12.302700000   0   0   0 # h
    504      1   2  0.100000    20.002600000     1.538640000    12.018200000   0   0   0 # h
    505      1   1  0.000000    11.858800000    24.487300000     5.060170000   0   0   0 # cp
    506      1   1 -0.100000    12.555454360    24.961400000     3.955780000   0   0   0 # cp
    507      1   1 -0.100000    13.410154360    24.115600000     3.259160000   0   0   0 # cp
    508      1   1  0.000000    13.494300000    22.755600000     3.614920000   0   0   0 # cp
    509      1   1 -0.100000    12.705600000    22.299900000     4.667830000   0   0   0 # cp
    510      1   1 -0.100000    11.956300000    23.164500000     5.409410000   0   0   0 # cp
    511      1   2  0.100000    27.637204360     0.043386600     3.624750000   0   0   0 # h
    512      1   2  0.100000   -16.010745640    24.458100000     2.435010000   1   0   0 # h
    513      1   2  0.100000    12.636600000    21.275200000     4.946150000   0   0   0 # h
    514      1   2  0.100000    11.386900000    22.776200000     6.238450000   0   0   0 # h
    515      1   1 -0.100000    14.860600000    19.800900000     4.192540000   0   0   0 # cp
    516      1   1  0.000000    14.120400000    20.189700000     3.097340000   0   0   0 # cp
    517      1   1 -0.100000    13.380900000    19.243300000     2.422930000   0   0   0 # cp
    518      1   1 -0.100000    13.353700000    17.926000000     2.874590000   0   0   0 # cp
    519      1   1  0.000000    14.130700000    17.566100000     3.938430000   0   0   0 # cp
    520      1   1 -0.100000    14.896600000    18.502800000     4.595010000   0   0   0 # cp
    521      1   3  0.000000    14.301254360    21.720600000     2.648610000   0   0   0 # c
    522      1   1  0.000000   -14.115745640    22.035600000     2.632770000   1   0   0 # cp
    523      1   1 -0.100000   -13.286745640    21.182000000     1.909990000   1   0   0 # cp
    524      1   1 -0.100000   -11.974800000    21.475500000     1.765160000   0   0   0 # cp
    525      1   1  0.000000   -11.466300000    22.653300000     2.211000000   0   0   0 # cp
    526      1   1 -0.100000   -12.252300000    23.477800000     3.001630000   0   0   0 # cp
    527      1   1 -0.100000   -13.544645640    23.123500000     3.267240000   1   0   0 # cp
    528      1   1 -0.100000    12.201400000    22.069000000     1.116970000   0   0   0 # cp
    529      1   1 -0.100000    18.928000000    19.219400000    44.496400000   0   0   0 # cp
    530      1   1  0.000000    19.664100000    19.548400000    43.394600000   0   0   0 # cp
    531      1   1 -0.100000    21.040934360    19.559500000    43.531100000   0   0   0 # cp
    532      1   1 -0.100000    21.644658697    19.202002469    44.694165462   0   0  -1 # cp
    533      1   1  0.000000    13.600300000    22.031100000     1.234270000   0   0   0 # cp
    534      1   3  0.000000    19.031300000    20.020300000    42.037400000   0   0   0 # c
    535      1   1  0.000000    21.414264360    18.426400000    38.731400000   0   0   0 # cp
    536      1   1 -0.100000    20.935264360    19.691800000    38.639300000   0   0   0 # cp
    537      1   1 -0.100000    20.197514360    20.227100000    39.676700000   0   0   0 # cp
    538      1   1  0.000000    19.889700000    19.493400000    40.810300000   0   0   0 # cp
    539      1   1 -0.100000    20.246300000    18.144300000    40.758200000   0   0   0 # cp
    540      1   1 -0.100000    21.012500000    17.610000000    39.760300000   0   0   0 # cp
    541      1   1  0.000000    19.013700000    21.589100000    42.352800000   0   0   0 # cp
    542      1   1 -0.100000    17.926200000    22.165800000    43.018100000   0   0   0 # cp
    543      1   1 -0.100000    33.091600000    -2.452280000    43.428800000   0   0   0 # cp
    544      1   1  0.000000     4.169694360    -1.634550000    43.119200000   1   0   0 # cp
    545      1   1 -0.100000     5.257194360    -2.173120000    42.470300000   1   0   0 # cp
    546      1   1 -0.100000    -9.882505640    22.438000000    42.085500000   1   0   0 # cp
    547      1   1 -0.100000    16.915200000    20.129000000    40.651900000   0   0   0 # cp
    548      1   1 -0.100000    15.715900000    19.659200000    40.160600000   0   0   0 # cp
    549      1   1  0.000000    15.288600000    18.400700000    40.508300000   0   0   0 # cp
    550      1   1 -0.100000    16.038800000    17.661400000    41.395800000   0   0   0 # cp
    551      1   1 -0.100000    17.170700000    18.161900000    41.953600000   0   0   0 # cp
    552      1   1  0.000000    17.611200000    19.409800000    41.597600000   0   0   0 # cp
    553      1   2  0.100000    15.450054360    20.489700000     4.772970000   0   0   0 # h
    554      1   2  0.100000    12.737100000    19.481900000     1.576550000   0   0   0 # h
    555      1   2  0.100000    12.778200000    17.205200000     2.314180000   0   0   0 # h
    556      1   2  0.100000    15.540200000    18.220900000     5.414250000   0   0   0 # h
    557      1   2  0.100000   -13.721245640    20.299200000     1.424000000   1   0   0 # h
    558      1   2  0.100000   -11.382600000    20.824000000     1.153350000   0   0   0 # h
    559      1   2  0.100000   -11.869800000    24.380400000     3.454570000   0   0   0 # h
    560      1   2  0.100000   -14.066845640    23.770500000     3.923630000   1   0   0 # h
    561      1   2  0.100000    11.522800000    21.954800000     1.931740000   0   0   0 # h
    562      1   2  0.100000    17.854300000    19.210100000    44.413300000   0   0   0 # h
    563      1   2  0.100000    -8.324905640    19.856900000    42.684200000   1   0   0 # h
    564      1   2  0.100000    -7.238981303    19.224702469    44.709265462   1   0  -1 # h
    565      1   2  0.100000    -8.741025640    20.290500000    37.793600000   1   0   0 # h
    566      1   2  0.100000    19.905354360    21.284800000    39.666900000   0   0   0 # h
    567      1   2  0.100000    19.992800000    17.518600000    41.597300000   0   0   0 # h
    568      1   2  0.100000    21.354800000    16.567200000    39.829700000   0   0   0 # h
    569      1   2  0.100000    17.094500000    21.540100000    43.331500000   0   0   0 # h
    570      1   2  0.100000    32.275700000    -2.069010000    43.988800000   0   0   0 # h
    571      1   2  0.100000     6.146570000    -1.559440000    42.348600000   0   0   0 # h
    572      1   2  0.100000    -8.973795640    22.046200000    41.641800000   1   0   0 # h
    573      1   2  0.100000    17.267400000    21.091900000    40.281900000   0   0   0 # h
    574      1   2  0.100000    15.183800000    20.281400000    39.457300000   0   0   0 # h
    575      1   2  0.100000    15.742300000    16.635300000    41.613400000   0   0   0 # h
    576      1   2  0.100000    17.710200000    17.517700000    42.610500000   0   0   0 # h
    577      1   4 -0.200000    10.961682279    25.422515647     5.825790000   0   0   0 # c2
    578      1   4 -0.200000     9.515082279    25.492024647     5.277420000   0   0   0 # c2
    579      1   2  0.100000    26.540900000     0.510267000     5.844730000   0   0   0 # h
    580      1   2  0.100000    10.961982279    25.117877647     6.881980000   0   0   0 # h
    581      1   2  0.100000     9.150570000    24.502900000     4.924260000   0   0   0 # h
    582      1   2  0.100000    24.729500000     0.205375000     4.395840000   0   0   0 # h
    583      1   4 -0.200000    14.166500000    16.102800000     4.439790000   0   0   0 # c2
    584      1   4 -0.200000    13.419900000    15.899200000     5.796510000   0   0   0 # c2
    585      1   2  0.100000    13.790900000    15.456600000     3.629940000   0   0   0 # h
    586      1   2  0.100000    15.219100000    15.775200000     4.529800000   0   0   0 # h
    587      1   2  0.100000    12.363000000    16.073000000     5.612010000   0   0   0 # h
    588      1   2  0.100000    13.702400000    16.697100000     6.515080000   0   0   0 # h
    589      1   4 -0.200000    11.559200000    19.430400000     8.785340000   0   0   0 # c2
    590      1   4 -0.200000    10.394000000    20.343900000     9.254680000   0   0   0 # c2
    591      1   2  0.100000    12.221800000    20.031800000     8.150370000   0   0   0 # h
    592      1   2  0.100000    11.147500000    18.601300000     8.143920000   0   0   0 # h
    593      1   2  0.100000     9.718880000    20.444900000     8.356590000   0   0   0 # h
    594      1   2  0.100000     9.740830000    19.844500000     9.953280000   0   0   0 # h
    595      1   4 -0.200000    18.317200000     7.570250000    10.075000000   0   0   0 # c2
    596      1   4 -0.200000    19.719800000     7.571010000     9.426160000   0   0   0 # c2
    597      1   2  0.100000    18.374800000     7.173200000    11.113300000   0   0   0 # h
    598      1   2  0.100000    17.687900000     6.817800000     9.548440000   0   0   0 # h
    599      1   2  0.100000    20.381100000     8.236680000     9.989950000   0   0   0 # h
    600      1   2  0.100000    19.649300000     7.969880000     8.392910000   0   0   0 # h
    601      1   4 -0.200000   -10.002800000    22.940900000     1.928270000   0   0   0 # c2
    602      1   4 -0.200000    -8.976740000    22.143200000     2.757590000   0   0   0 # c2
    603      1   2  0.100000    -9.841140000    22.753700000     0.865341000   0   0   0 # h
    604      1   2  0.100000    -9.859850000    24.045100000     2.028430000   0   0   0 # h
    605      1   2  0.100000    -9.052360000    21.061000000     2.660440000   0   0   0 # h
    606      1   2  0.100000    -7.933180000    22.372000000     2.381050000   0   0   0 # h
    607      1   4 -0.200000     0.193272000     1.825980000     7.326460000   0   0   0 # c2
    608      1   4 -0.200000     0.609242000     0.680930000     6.360190000   0   0   0 # c2
    609      1   2  0.100000     1.073390000     2.259290000     7.808780000   0   0   0 # h
    610      1   2  0.100000    -0.291748000     2.636140000     6.809640000   0   0   0 # h
    611      1   2  0.100000     0.896962000     1.190170000     5.412080000   0   0   0 # h
    612      1   2  0.100000    -0.219284640     0.038093800     6.036850000   1   0   0 # h
    613      1   4 -0.200000    15.011200000     1.487940000    10.593300000   0   0   0 # c2
    614      1   4 -0.200000    15.869700000     0.207027000    10.470700000   0   0   0 # c2
    615      1   2  0.100000    15.155400000     2.127740000     9.683370000   0   0   0 # h
    616      1   2  0.100000    15.422500000     2.113530000    11.439700000   0   0   0 # h
    617      1   2  0.100000    15.772000000    -0.410292000    11.397100000   0   0   0 # h
    618      1   2  0.100000    15.497300000    -0.447669000     9.633210000   0   0   0 # h
    619      1   4 -0.200000     9.856660000     7.000450000    11.412000000   0   0   0 # c2
    620      1   4 -0.200000    11.333600000     7.053290000    10.960300000   0   0   0 # c2
    621      1   2  0.100000     9.719480000     7.529570000    12.336200000   0   0   0 # h
    622      1   2  0.100000     9.204690000     7.465450000    10.642100000   0   0   0 # h
    623      1   2  0.100000    11.391900000     6.462500000    10.003300000   0   0   0 # h
    624      1   2  0.100000    11.982100000     6.503090000    11.669700000   0   0   0 # h
    625      1   4 -0.200000   -10.263645640    20.085100000    13.947000000   1   0   0 # c2
    626      1   4 -0.200000    -9.194130000    20.162900000    12.843900000   0   0   0 # c2
    627      1   2  0.100000   -10.478000000    21.129300000    14.284000000   0   0   0 # h
    628      1   2  0.100000    -9.794855640    19.620900000    14.858400000   1   0   0 # h
    629      1   2  0.100000    -9.047020000    19.142900000    12.470400000   0   0   0 # h
    630      1   2  0.100000    -8.232170000    20.362100000    13.344200000   0   0   0 # h
    631      1   4 -0.200000    14.211400000    17.743900000    39.628900000   0   0   0 # c2
    632      1   4 -0.200000    13.010400000    17.215900000    40.428200000   0   0   0 # c2
    633      1   2  0.100000    14.682000000    16.901500000    39.078200000   0   0   0 # h
    634      1   2  0.100000    13.825500000    18.378700000    38.789300000   0   0   0 # h
    635      1   2  0.100000    12.498200000    18.105100000    40.882500000   0   0   0 # h
    636      1   2  0.100000    13.325500000    16.628700000    41.308600000   0   0   0 # h
    637      1   4 -0.200000    -7.633505640    17.835100000    37.653400000   1   0   0 # c2
    638      1   4 -0.200000    -6.248465640    17.458300000    38.243400000   1   0   0 # c2
    639      1   2  0.100000    21.866684360    16.932700000    37.185900000   0   0   0 # h
    640      1   2  0.100000    -7.493715640    18.550800000    36.824000000   1   0   0 # h
    641      1   2  0.100000    -5.822800000    18.317500000    38.789800000   0   0   0 # h
    642      1   2  0.100000    -6.423935640    16.723400000    39.072400000   1   0   0 # h
    643      1   4 -0.200000     3.279730000    16.426300000    35.338500000   0   0   0 # c2
    644      1   4 -0.200000     3.900390000    15.102800000    35.846800000   0   0   0 # c2
    645      1   2  0.100000     3.794670000    16.723300000    34.400400000   0   0   0 # h
    646      1   2  0.100000     3.532300000    17.199900000    36.094200000   0   0   0 # h
    647      1   2  0.100000     3.680110000    14.296000000    35.121500000   0   0   0 # h
    648      1   2  0.100000     3.399790000    14.722600000    36.741400000   0   0   0 # h
    649      1   4 -0.200000    18.803800000    16.012900000    36.176900000   0   0   0 # c2
    650      1   4 -0.200000    19.135900000    14.851900000    35.254900000   0   0   0 # c2
    651      1   2  0.100000    18.754000000    15.608400000    37.213800000   0   0   0 # h
    652      1   2  0.100000    19.638300000    16.755900000    36.171900000   0   0   0 # h
    653      1   2  0.100000    18.234500000    14.404500000    34.810100000   0   0   0 # h
    654      1   2  0.100000    19.563800000    14.037000000    35.879700000   0   0   0 # h
    655      1   4 -0.200000     4.257334360    -0.174282000    43.642400000   1   0   0 # c2
    656      1   4 -0.200000     4.484524360     0.970533000    42.591600000   1   0   0 # c2
    657      1   2  0.100000     3.280044360     0.067453000    44.131700000   1   0   0 # h
    658      1   2  0.100000     5.029574360    -0.136609000    44.422900000   1   0   0 # h
    659      1   2  0.100000     5.567200000     1.190780000    42.515700000   0   0   0 # h
    660      1   2  0.100000     4.064174360     1.886210000    43.046000000   1   0   0 # h
    661      1   4 -0.200000     1.061810000     9.522430000    35.143100000   0   0   0 # c2
    662      1   4 -0.200000    -0.468207000     9.534880000    35.330600000   0   0   0 # c2
    663      1   2  0.100000     1.501440000     9.938990000    36.066200000   0   0   0 # h
    664      1   2  0.100000     1.451570000    10.204900000    34.348200000   0   0   0 # h
    665      1   2  0.100000    -0.894501000     8.843910000    34.576900000   0   0   0 # h
    666      1   2  0.100000    -0.681687000     9.115790000    36.343800000   0   0   0 # h
    667      1   4 -0.200000    -9.032145640    21.566800000    34.255000000   1   0   0 # c2
    668      1   4 -0.200000    19.655654360    20.993800000    34.897300000   0   0   0 # c2
    669      1   2  0.100000    -9.286005640    22.397000000    33.605000000   1   0   0 # h
    670      1   2  0.100000    -8.393560000    21.976000000    35.065900000   0   0   0 # h
    671      1   2  0.100000    19.907254360    20.140300000    35.557600000   0   0   0 # h
    672      1   2  0.100000    19.052954360    20.532600000    34.074800000   0   0   0 # h
    673      1   4 -0.200000     8.324610000     7.807260000    35.177700000   0   0   0 # c2
    674      1   4 -0.200000     7.863090000     8.943960000    36.137200000   0   0   0 # c2
    675      1   2  0.100000     8.636140000     8.188980000    34.219600000   0   0   0 # h
    676      1   2  0.100000     9.218550000     7.287680000    35.601600000   0   0   0 # h
    677      1   2  0.100000     7.588190000     8.515910000    37.098800000   0   0   0 # h
    678      1   2  0.100000     6.949650000     9.381700000    35.688600000   0   0   0 # h
    679      1   4 -0.200000    11.205900000    22.707500000    36.291800000   0   0   0 # c2
    680      1   4 -0.200000    26.645900000    -2.506080000    37.607700000   0   0   0 # c2
    681      1   2  0.100000    11.129482055    23.417635030    35.457600000   0  -1   0 # h
    682      1   2  0.100000    10.160000000    22.327400000    36.290600000   0   0   0 # h
    683      1   2  0.100000    11.452582279    22.700914647    38.413600000   0   0   0 # h
    684      1   2  0.100000    25.832900000    -1.811300000    37.853100000   0   0   0 # h
    685      1   4 -0.200000    14.324400000    16.792700000    19.737800000   0   0   0 # c2
    686      1   4 -0.200000    13.200500000    16.556200000    18.716300000   0   0   0 # c2
    687      1   2  0.100000    15.135300000    16.080200000    19.457500000   0   0   0 # h
    688      1   2  0.100000    13.974200000    16.490900000    20.742500000   0   0   0 # h
    689      1   2  0.100000    12.295100000    17.219700000    18.916200000   0   0   0 # h
    690      1   2  0.100000    12.826900000    15.512100000    18.857500000   0   0   0 # h
    691      1   4 -0.200000    27.065200000     0.123138000    18.359800000   0   0   0 # c2
    692      1   4 -0.200000    27.503700000     0.986507000    17.133300000   0   0   0 # c2
    693      1   2  0.100000    26.124600000    -0.429896000    18.222000000   0   0   0 # h
    694      1   2  0.100000    26.858700000     0.819593000    19.185800000   0   0   0 # h
    695      1   2  0.100000    28.583384360     1.183090000    17.242700000   0   0   0 # h
    696      1   2  0.100000    27.045200000     1.971870000    17.262300000   0   0   0 # h
    697      1   4 -0.200000    -9.833630000    24.193700000    15.845600000   0   0   0 # c2
    698      1   4 -0.200000    -8.358897721    24.451664647    16.231000000   0   0   0 # c2
    699      1   2  0.100000    -9.886810000    23.561000000    14.945100000   0   0   0 # h
    700      1   2  0.100000     4.861590000    -0.780293000    15.491600000   0   0   0 # h
    701      1   2  0.100000    -7.827610000    23.525200000    16.510600000   0   0   0 # h
    702      1   2  0.100000     6.778880000    -0.869751000    17.153200000   0   0   0 # h
    703      1   4 -0.200000    13.142300000    17.468800000    28.348100000   0   0   0 # c2
    704      1   4 -0.200000    14.299700000    16.951000000    27.471900000   0   0   0 # c2
    705      1   2  0.100000    12.297200000    16.771100000    28.167900000   0   0   0 # h
    706      1   2  0.100000    12.735500000    18.407100000    27.932300000   0   0   0 # h
    707      1   2  0.100000    13.837300000    16.416100000    26.606900000   0   0   0 # h
    708      1   2  0.100000    14.887500000    16.172900000    27.975700000   0   0   0 # h
    709      1   4 -0.200000     3.376854360    -0.461240000    29.591200000   1   0   0 # c2
    710      1   4 -0.200000     2.859214360     0.987678000    29.383800000   1   0   0 # c2
    711      1   2  0.100000     2.840414360    -0.883934000    30.470100000   1   0   0 # h
    712      1   2  0.100000     4.455210000    -0.427276000    29.882000000   0   0   0 # h
    713      1   2  0.100000     1.811764360     0.942767000    29.080100000   1   0   0 # h
    714      1   2  0.100000     3.366130000     1.505620000    28.541400000   0   0   0 # h
    715      1   4 -0.200000    -6.883475640    16.873000000    25.679800000   1   0   0 # c2
    716      1   4 -0.200000    -7.085290000    18.216200000    24.991200000   0   0   0 # c2
    717      1   2  0.100000    -5.967130000    16.374800000    25.312500000   0   0   0 # h
    718      1   2  0.100000    -7.710345640    16.172300000    25.403900000   1   0   0 # h
    719      1   2  0.100000    -6.952200000    18.094900000    23.907900000   0   0   0 # h
    720      1   2  0.100000    -6.247960000    18.862700000    25.286400000   0   0   0 # h

Bonds

     1   1      1      2
     2   1      1      6
     3   2      1    709
     4   1      2      3
     5   3      2      7
     6   1      3      4
     7   3      3      8
     8   1      4      5
     9   4      4     17
    10   1      5      6
    11   3      5      9
    12   3      6     10
    13   1     11     12
    14   1     11     16
    15   3     11     49
    16   1     12     13
    17   4     12     17
    18   1     13     14
    19   3     13     50
    20   1     14     15
    21   3     14     51
    22   1     15     16
    23   2     15    704
    24   3     16     52
    25   4     18     17
    26   4     29     17
    27   1     18     19
    28   1     18     23
    29   1     19     20
    30   3     19     53
    31   1     20     21
    32   3     20     54
    33   1     21     22
    34   2     21    716
    35   1     22     23
    36   3     22     55
    37   3     23     56
    38   1     24     25
    39   1     24     29
    40   3     24     57
    41   1     25     26
    42   3     25     58
    43   1     26     27
    44   4     26     30
    45   1     27     28
    46   3     27     59
    47   1     28     29
    48   3     28     60
    49   4     34     30
    50   4     37     30
    51   4     48     30
    52   1     31     32
    53   1     31     36
    54   2     31    685
    55   1     32     33
    56   3     32     61
    57   1     33     34
    58   3     33     62
    59   1     34     35
    60   1     35     36
    61   3     35     63
    62   3     36     64
    63   1     37     38
    64   1     37     42
    65   1     38     39
    66   3     38     65
    67   1     39     40
    68   3     39     66
    69   1     40     41
    70   2     40    697
    71   1     41     42
    72   3     41     67
    73   3     42     68
    74   1     43     44
    75   1     43     48
    76   3     43     69
    77   1     44     45
    78   3     44     70
    79   1     45     46
    80   2     45    691
    81   1     46     47
    82   3     46     71
    83   1     47     48
    84   3     47     72
    85   1     73     74
    86   1     73     78
    87   2     73    656
    88   1     74     75
    89   3     74     79
    90   1     75     76
    91   3     75     80
    92   1     76     77
    93   4     76     89
    94   1     77     78
    95   3     77     81
    96   3     78     82
    97   1     83     84
    98   1     83     88
    99   3     83    121
   100   1     84     85
   101   4     84     89
   102   1     85     86
   103   3     85    122
   104   1     86     87
   105   3     86    123
   106   1     87     88
   107   2     87    680
   108   3     88    124
   109   4     90     89
   110   4    101     89
   111   1     90     91
   112   1     90     95
   113   1     91     92
   114   3     91    125
   115   1     92     93
   116   3     92    126
   117   1     93     94
   118   2     93    668
   119   1     94     95
   120   3     94    127
   121   3     95    128
   122   1     96     97
   123   1     96    101
   124   3     96    129
   125   1     97     98
   126   3     97    130
   127   1     98     99
   128   4     98    102
   129   1     99    100
   130   3     99    131
   131   1    100    101
   132   3    100    132
   133   4    106    102
   134   4    109    102
   135   4    120    102
   136   1    103    104
   137   1    103    108
   138   2    103    710
   139   1    104    105
   140   3    104    133
   141   1    105    106
   142   3    105    134
   143   1    106    107
   144   1    107    108
   145   3    107    135
   146   3    108    136
   147   1    109    110
   148   1    109    114
   149   1    110    111
   150   3    110    137
   151   1    111    112
   152   3    111    138
   153   1    112    113
   154   2    112    673
   155   1    113    114
   156   3    113    139
   157   3    114    140
   158   1    115    116
   159   1    115    120
   160   3    115    141
   161   1    116    117
   162   3    116    142
   163   1    117    118
   164   2    117    661
   165   1    118    119
   166   3    118    143
   167   1    119    120
   168   3    119    144
   169   1    145    146
   170   1    145    150
   171   2    145    715
   172   1    146    147
   173   3    146    151
   174   1    147    148
   175   3    147    152
   176   1    148    149
   177   4    148    161
   178   1    149    150
   179   3    149    153
   180   3    150    154
   181   1    155    156
   182   1    155    160
   183   3    155    193
   184   1    156    157
   185   4    156    161
   186   1    157    158
   187   3    157    194
   188   1    158    159
   189   3    158    195
   190   1    159    160
   191   2    159    650
   192   3    160    196
   193   4    162    161
   194   4    173    161
   195   1    162    163
   196   1    162    167
   197   1    163    164
   198   3    163    197
   199   1    164    165
   200   3    164    198
   201   1    165    166
   202   2    165    667
   203   1    166    167
   204   3    166    199
   205   3    167    200
   206   1    168    169
   207   1    168    173
   208   3    168    201
   209   1    169    170
   210   3    169    202
   211   1    170    171
   212   4    170    174
   213   1    171    172
   214   3    171    203
   215   1    172    173
   216   3    172    204
   217   4    178    174
   218   4    181    174
   219   4    192    174
   220   1    175    176
   221   1    175    180
   222   2    175    638
   223   1    176    177
   224   3    176    205
   225   1    177    178
   226   3    177    206
   227   1    178    179
   228   1    179    180
   229   3    179    207
   230   3    180    208
   231   1    181    182
   232   1    181    186
   233   1    182    183
   234   3    182    209
   235   1    183    184
   236   3    183    210
   237   1    184    185
   238   2    184    643
   239   1    185    186
   240   3    185    211
   241   3    186    212
   242   1    187    188
   243   1    187    192
   244   3    187    213
   245   1    188    189
   246   3    188    214
   247   1    189    190
   248   2    189    662
   249   1    190    191
   250   3    190    215
   251   1    191    192
   252   3    191    216
   253   1    217    218
   254   1    217    222
   255   2    217    632
   256   1    218    219
   257   3    218    223
   258   1    219    220
   259   3    219    224
   260   1    220    221
   261   4    220    233
   262   1    221    222
   263   3    221    225
   264   3    222    226
   265   1    227    228
   266   1    227    232
   267   3    227    265
   268   1    228    229
   269   4    228    233
   270   1    229    230
   271   3    229    266
   272   1    230    231
   273   3    230    267
   274   1    231    232
   275   2    231    644
   276   3    232    268
   277   4    234    233
   278   4    245    233
   279   1    234    235
   280   1    234    239
   281   1    235    236
   282   3    235    269
   283   1    236    237
   284   3    236    270
   285   1    237    238
   286   2    237    674
   287   1    238    239
   288   3    238    271
   289   3    239    272
   290   1    240    241
   291   1    240    245
   292   3    240    273
   293   1    241    242
   294   3    241    274
   295   1    242    243
   296   4    242    246
   297   1    243    244
   298   3    243    275
   299   1    244    245
   300   3    244    276
   301   4    250    246
   302   4    253    246
   303   4    264    246
   304   1    247    248
   305   1    247    252
   306   2    247    703
   307   1    248    249
   308   3    248    277
   309   1    249    250
   310   3    249    278
   311   1    250    251
   312   1    251    252
   313   3    251    279
   314   3    252    280
   315   1    253    254
   316   1    253    258
   317   1    254    255
   318   3    254    281
   319   1    255    256
   320   3    255    282
   321   1    256    257
   322   2    256    649
   323   1    257    258
   324   3    257    283
   325   3    258    284
   326   1    259    260
   327   1    259    264
   328   3    259    285
   329   1    260    261
   330   3    260    286
   331   1    261    262
   332   2    261    679
   333   1    262    263
   334   3    262    287
   335   1    263    264
   336   3    263    288
   337   1    289    290
   338   1    289    294
   339   2    289    602
   340   1    290    291
   341   3    290    295
   342   1    291    292
   343   3    291    296
   344   1    292    293
   345   4    292    305
   346   1    293    294
   347   3    293    297
   348   3    294    298
   349   1    299    300
   350   1    299    304
   351   3    299    337
   352   1    300    301
   353   4    300    305
   354   1    301    302
   355   3    301    338
   356   1    302    303
   357   3    302    339
   358   1    303    304
   359   2    303    626
   360   3    304    340
   361   4    306    305
   362   4    317    305
   363   1    306    307
   364   1    306    311
   365   1    307    308
   366   3    307    341
   367   1    308    309
   368   3    308    342
   369   1    309    310
   370   2    309    608
   371   1    310    311
   372   3    310    343
   373   3    311    344
   374   1    312    313
   375   1    312    317
   376   3    312    345
   377   1    313    314
   378   3    313    346
   379   1    314    315
   380   4    314    318
   381   1    315    316
   382   3    315    347
   383   1    316    317
   384   3    316    348
   385   4    322    318
   386   4    325    318
   387   4    336    318
   388   1    319    320
   389   1    319    324
   390   2    319    698
   391   1    320    321
   392   3    320    349
   393   1    321    322
   394   3    321    350
   395   1    322    323
   396   1    323    324
   397   3    323    351
   398   3    324    352
   399   1    325    326
   400   1    325    330
   401   1    326    327
   402   3    326    353
   403   1    327    328
   404   3    327    354
   405   1    328    329
   406   2    328    619
   407   1    329    330
   408   3    329    355
   409   3    330    356
   410   1    331    332
   411   1    331    336
   412   3    331    357
   413   1    332    333
   414   3    332    358
   415   1    333    334
   416   2    333    613
   417   1    334    335
   418   3    334    359
   419   1    335    336
   420   3    335    360
   421   1    361    362
   422   1    361    366
   423   2    361    584
   424   1    362    363
   425   3    362    367
   426   1    363    364
   427   3    363    368
   428   1    364    365
   429   4    364    377
   430   1    365    366
   431   3    365    369
   432   3    366    370
   433   1    371    372
   434   1    371    376
   435   3    371    409
   436   1    372    373
   437   4    372    377
   438   1    373    374
   439   3    373    410
   440   1    374    375
   441   3    374    411
   442   1    375    376
   443   2    375    595
   444   3    376    412
   445   4    378    377
   446   4    389    377
   447   1    378    379
   448   1    378    383
   449   1    379    380
   450   3    379    413
   451   1    380    381
   452   3    380    414
   453   1    381    382
   454   2    381    620
   455   1    382    383
   456   3    382    415
   457   3    383    416
   458   1    384    385
   459   1    384    389
   460   3    384    417
   461   1    385    386
   462   3    385    418
   463   1    386    387
   464   4    386    390
   465   1    387    388
   466   3    387    419
   467   1    388    389
   468   3    388    420
   469   4    394    390
   470   4    397    390
   471   4    408    390
   472   1    391    392
   473   1    391    396
   474   2    391    686
   475   1    392    393
   476   3    392    421
   477   1    393    394
   478   3    393    422
   479   1    394    395
   480   1    395    396
   481   3    395    423
   482   3    396    424
   483   1    397    398
   484   1    397    402
   485   1    398    399
   486   3    398    425
   487   1    399    400
   488   3    399    426
   489   1    400    401
   490   2    400    589
   491   1    401    402
   492   3    401    427
   493   3    402    428
   494   1    403    404
   495   1    403    408
   496   3    403    429
   497   1    404    405
   498   3    404    430
   499   1    405    406
   500   2    405    625
   501   1    406    407
   502   3    406    431
   503   1    407    408
   504   3    407    432
   505   1    433    434
   506   1    433    438
   507   2    433    692
   508   1    434    435
   509   3    434    439
   510   1    435    436
   511   3    435    440
   512   1    436    437
   513   4    436    449
   514   1    437    438
   515   3    437    441
   516   3    438    442
   517   1    443    444
   518   1    443    448
   519   3    443    481
   520   1    444    445
   521   4    444    449
   522   1    445    446
   523   3    445    482
   524   1    446    447
   525   3    446    483
   526   1    447    448
   527   2    447    590
   528   3    448    484
   529   4    450    449
   530   4    461    449
   531   1    450    451
   532   1    450    455
   533   1    451    452
   534   3    451    485
   535   1    452    453
   536   3    452    486
   537   1    453    454
   538   2    453    607
   539   1    454    455
   540   3    454    487
   541   3    455    488
   542   1    456    457
   543   1    456    461
   544   3    456    489
   545   1    457    458
   546   3    457    490
   547   1    458    459
   548   4    458    462
   549   1    459    460
   550   3    459    491
   551   1    460    461
   552   3    460    492
   553   4    466    462
   554   4    469    462
   555   4    480    462
   556   1    463    464
   557   1    463    468
   558   2    463    578
   559   1    464    465
   560   3    464    493
   561   1    465    466
   562   3    465    494
   563   1    466    467
   564   1    467    468
   565   3    467    495
   566   3    468    496
   567   1    469    470
   568   1    469    474
   569   1    470    471
   570   3    470    497
   571   1    471    472
   572   3    471    498
   573   1    472    473
   574   2    472    596
   575   1    473    474
   576   3    473    499
   577   3    474    500
   578   1    475    476
   579   1    475    480
   580   3    475    501
   581   1    476    477
   582   3    476    502
   583   1    477    478
   584   2    477    614
   585   1    478    479
   586   3    478    503
   587   1    479    480
   588   3    479    504
   589   1    505    506
   590   1    505    510
   591   2    505    577
   592   1    506    507
   593   3    506    511
   594   1    507    508
   595   3    507    512
   596   1    508    509
   597   4    508    521
   598   1    509    510
   599   3    509    513
   600   3    510    514
   601   1    515    516
   602   1    515    520
   603   3    515    553
   604   1    516    517
   605   4    516    521
   606   1    517    518
   607   3    517    554
   608   1    518    519
   609   3    518    555
   610   1    519    520
   611   2    519    583
   612   3    520    556
   613   4    522    521
   614   4    533    521
   615   1    522    523
   616   1    522    527
   617   1    523    524
   618   3    523    557
   619   1    524    525
   620   3    524    558
   621   1    525    526
   622   2    525    601
   623   1    526    527
   624   3    526    559
   625   3    527    560
   626   1    528    529
   627   1    528    533
   628   3    528    561
   629   1    529    530
   630   3    529    562
   631   1    530    531
   632   4    530    534
   633   1    531    532
   634   3    531    563
   635   1    532    533
   636   3    532    564
   637   4    538    534
   638   4    541    534
   639   4    552    534
   640   1    535    536
   641   1    535    540
   642   2    535    637
   643   1    536    537
   644   3    536    565
   645   1    537    538
   646   3    537    566
   647   1    538    539
   648   1    539    540
   649   3    539    567
   650   3    540    568
   651   1    541    542
   652   1    541    546
   653   1    542    543
   654   3    542    569
   655   1    543    544
   656   3    543    570
   657   1    544    545
   658   2    544    655
   659   1    545    546
   660   3    545    571
   661   3    546    572
   662   1    547    548
   663   1    547    552
   664   3    547    573
   665   1    548    549
   666   3    548    574
   667   1    549    550
   668   2    549    631
   669   1    550    551
   670   3    550    575
   671   1    551    552
   672   3    551    576
   673   5    577    578
   674   6    579    577
   675   6    580    577
   676   6    581    578
   677   6    582    578
   678   5    583    584
   679   6    585    583
   680   6    586    583
   681   6    587    584
   682   6    588    584
   683   5    589    590
   684   6    591    589
   685   6    592    589
   686   6    593    590
   687   6    594    590
   688   5    595    596
   689   6    597    595
   690   6    598    595
   691   6    599    596
   692   6    600    596
   693   5    601    602
   694   6    603    601
   695   6    604    601
   696   6    605    602
   697   6    606    602
   698   5    607    608
   699   6    609    607
   700   6    610    607
   701   6    611    608
   702   6    612    608
   703   5    613    614
   704   6    615    613
   705   6    616    613
   706   6    617    614
   707   6    618    614
   708   5    619    620
   709   6    621    619
   710   6    622    619
   711   6    623    620
   712   6    624    620
   713   5    625    626
   714   6    627    625
   715   6    628    625
   716   6    629    626
   717   6    630    626
   718   5    631    632
   719   6    633    631
   720   6    634    631
   721   6    635    632
   722   6    636    632
   723   5    637    638
   724   6    639    637
   725   6    640    637
   726   6    641    638
   727   6    642    638
   728   5    643    644
   729   6    645    643
   730   6    646    643
   731   6    647    644
   732   6    648    644
   733   5    649    650
   734   6    651    649
   735   6    652    649
   736   6    653    650
   737   6    654    650
   738   5    655    656
   739   6    657    655
   740   6    658    655
   741   6    659    656
   742   6    660    656
   743   5    661    662
   744   6    663    661
   745   6    664    661
   746   6    665    662
   747   6    666    662
   748   5    667    668
   749   6    669    667
   750   6    670    667
   751   6    671    668
   752   6    672    668
   753   5    673    674
   754   6    675    673
   755   6    676    673
   756   6    677    674
   757   6    678    674
   758   5    679    680
   759   6    681    679
   760   6    682    679
   761   6    683    680
   762   6    684    680
   763   5    685    686
   764   6    687    685
   765   6    688    685
   766   6    689    686
   767   6    690    686
   768   5    691    692
   769   6    693    691
   770   6    694    691
   771   6    695    692
   772   6    696    692
   773   5    697    698
   774   6    699    697
   775   6    700    697
   776   6    701    698
   777   6    702    698
   778   5    703    704
   779   6    705    703
   780   6    706    703
   781   6    707    704
   782   6    708    704
   783   5    709    710
   784   6    711    709
   785   6    712    709
   786   6    713    710
   787   6    714    710
   788   5    715    716
   789   6    717    715
   790   6    718    715
   791   6    719    716
   792   6    720    716

Angles

     1   1      2      1      6
     2   2      2      1    709
     3   2      6      1    709
     4   1      1      2      3
     5   3      1      2      7
     6   3      3      2      7
     7   1      2      3      4
     8   3      2      3      8
     9   3      4      3      8
    10   1      3      4      5
    11   4      3      4     17
    12   4      5      4     17
    13   1      4      5      6
    14   3      4      5      9
    15   3      6      5      9
    16   1      1      6      5
    17   3      1      6     10
    18   3      5      6     10
    19   1     12     11     16
    20   3     12     11     49
    21   3     16     11     49
    22   1     11     12     13
    23   4     11     12     17
    24   4     13     12     17
    25   1     12     13     14
    26   3     12     13     50
    27   3     14     13     50
    28   1     13     14     15
    29   3     13     14     51
    30   3     15     14     51
    31   1     14     15     16
    32   2     14     15    704
    33   2     16     15    704
    34   1     11     16     15
    35   3     11     16     52
    36   3     15     16     52
    37   5      4     17     12
    38   5      4     17     18
    39   5      4     17     29
    40   5     12     17     18
    41   5     12     17     29
    42   5     18     17     29
    43   4     19     18     17
    44   4     23     18     17
    45   1     19     18     23
    46   1     18     19     20
    47   3     18     19     53
    48   3     20     19     53
    49   1     19     20     21
    50   3     19     20     54
    51   3     21     20     54
    52   1     20     21     22
    53   2     20     21    716
    54   2     22     21    716
    55   1     21     22     23
    56   3     21     22     55
    57   3     23     22     55
    58   1     18     23     22
    59   3     18     23     56
    60   3     22     23     56
    61   1     25     24     29
    62   3     25     24     57
    63   3     29     24     57
    64   1     24     25     26
    65   3     24     25     58
    66   3     26     25     58
    67   1     25     26     27
    68   4     25     26     30
    69   4     27     26     30
    70   1     26     27     28
    71   3     26     27     59
    72   3     28     27     59
    73   1     27     28     29
    74   3     27     28     60
    75   3     29     28     60
    76   4     24     29     17
    77   4     28     29     17
    78   1     24     29     28
    79   5     26     30     34
    80   5     26     30     37
    81   5     26     30     48
    82   5     34     30     37
    83   5     34     30     48
    84   5     37     30     48
    85   1     32     31     36
    86   2     32     31    685
    87   2     36     31    685
    88   1     31     32     33
    89   3     31     32     61
    90   3     33     32     61
    91   1     32     33     34
    92   3     32     33     62
    93   3     34     33     62
    94   4     33     34     30
    95   1     33     34     35
    96   4     35     34     30
    97   1     34     35     36
    98   3     34     35     63
    99   3     36     35     63
   100   1     31     36     35
   101   3     31     36     64
   102   3     35     36     64
   103   4     38     37     30
   104   4     42     37     30
   105   1     38     37     42
   106   1     37     38     39
   107   3     37     38     65
   108   3     39     38     65
   109   1     38     39     40
   110   3     38     39     66
   111   3     40     39     66
   112   1     39     40     41
   113   2     39     40    697
   114   2     41     40    697
   115   1     40     41     42
   116   3     40     41     67
   117   3     42     41     67
   118   1     41     42     37
   119   3     41     42     68
   120   3     37     42     68
   121   1     44     43     48
   122   3     44     43     69
   123   3     48     43     69
   124   1     43     44     45
   125   3     43     44     70
   126   3     45     44     70
   127   1     44     45     46
   128   2     44     45    691
   129   2     46     45    691
   130   1     45     46     47
   131   3     45     46     71
   132   3     47     46     71
   133   1     46     47     48
   134   3     46     47     72
   135   3     48     47     72
   136   4     47     48     30
   137   4     43     48     30
   138   1     47     48     43
   139   1     74     73     78
   140   2     74     73    656
   141   2     78     73    656
   142   1     73     74     75
   143   3     73     74     79
   144   3     75     74     79
   145   1     74     75     76
   146   3     74     75     80
   147   3     76     75     80
   148   1     75     76     77
   149   4     75     76     89
   150   4     77     76     89
   151   1     76     77     78
   152   3     76     77     81
   153   3     78     77     81
   154   1     73     78     77
   155   3     73     78     82
   156   3     77     78     82
   157   1     84     83     88
   158   3     84     83    121
   159   3     88     83    121
   160   1     83     84     85
   161   4     83     84     89
   162   4     85     84     89
   163   1     84     85     86
   164   3     84     85    122
   165   3     86     85    122
   166   1     85     86     87
   167   3     85     86    123
   168   3     87     86    123
   169   1     86     87     88
   170   2     86     87    680
   171   2     88     87    680
   172   1     83     88     87
   173   3     83     88    124
   174   3     87     88    124
   175   5     84     89     76
   176   5     84     89     90
   177   5     84     89    101
   178   5     76     89     90
   179   5     76     89    101
   180   5     90     89    101
   181   4     91     90     89
   182   4     95     90     89
   183   1     91     90     95
   184   1     90     91     92
   185   3     90     91    125
   186   3     92     91    125
   187   1     91     92     93
   188   3     91     92    126
   189   3     93     92    126
   190   1     92     93     94
   191   2     92     93    668
   192   2     94     93    668
   193   1     93     94     95
   194   3     93     94    127
   195   3     95     94    127
   196   1     90     95     94
   197   3     90     95    128
   198   3     94     95    128
   199   1     97     96    101
   200   3     97     96    129
   201   3    101     96    129
   202   1     96     97     98
   203   3     96     97    130
   204   3     98     97    130
   205   1     97     98     99
   206   4     97     98    102
   207   4     99     98    102
   208   1     98     99    100
   209   3     98     99    131
   210   3    100     99    131
   211   1     99    100    101
   212   3     99    100    132
   213   3    101    100    132
   214   1    100    101     96
   215   4    100    101     89
   216   4     96    101     89
   217   5     98    102    106
   218   5     98    102    109
   219   5     98    102    120
   220   5    106    102    109
   221   5    106    102    120
   222   5    109    102    120
   223   1    104    103    108
   224   2    104    103    710
   225   2    108    103    710
   226   1    103    104    105
   227   3    103    104    133
   228   3    105    104    133
   229   1    104    105    106
   230   3    104    105    134
   231   3    106    105    134
   232   4    105    106    102
   233   1    105    106    107
   234   4    107    106    102
   235   1    106    107    108
   236   3    106    107    135
   237   3    108    107    135
   238   1    103    108    107
   239   3    103    108    136
   240   3    107    108    136
   241   4    110    109    102
   242   4    114    109    102
   243   1    110    109    114
   244   1    109    110    111
   245   3    109    110    137
   246   3    111    110    137
   247   1    110    111    112
   248   3    110    111    138
   249   3    112    111    138
   250   1    111    112    113
   251   2    111    112    673
   252   2    113    112    673
   253   1    112    113    114
   254   3    112    113    139
   255   3    114    113    139
   256   1    113    114    109
   257   3    113    114    140
   258   3    109    114    140
   259   1    116    115    120
   260   3    116    115    141
   261   3    120    115    141
   262   1    115    116    117
   263   3    115    116    142
   264   3    117    116    142
   265   1    116    117    118
   266   2    116    117    661
   267   2    118    117    661
   268   1    117    118    119
   269   3    117    118    143
   270   3    119    118    143
   271   1    118    119    120
   272   3    118    119    144
   273   3    120    119    144
   274   4    119    120    102
   275   1    119    120    115
   276   4    115    120    102
   277   1    146    145    150
   278   2    146    145    715
   279   2    150    145    715
   280   1    145    146    147
   281   3    145    146    151
   282   3    147    146    151
   283   1    146    147    148
   284   3    146    147    152
   285   3    148    147    152
   286   1    147    148    149
   287   4    147    148    161
   288   4    149    148    161
   289   1    148    149    150
   290   3    148    149    153
   291   3    150    149    153
   292   1    145    150    149
   293   3    145    150    154
   294   3    149    150    154
   295   1    156    155    160
   296   3    156    155    193
   297   3    160    155    193
   298   1    155    156    157
   299   4    155    156    161
   300   4    157    156    161
   301   1    156    157    158
   302   3    156    157    194
   303   3    158    157    194
   304   1    157    158    159
   305   3    157    158    195
   306   3    159    158    195
   307   1    158    159    160
   308   2    158    159    650
   309   2    160    159    650
   310   1    155    160    159
   311   3    155    160    196
   312   3    159    160    196
   313   5    156    161    148
   314   5    156    161    162
   315   5    156    161    173
   316   5    148    161    162
   317   5    148    161    173
   318   5    162    161    173
   319   4    163    162    161
   320   4    167    162    161
   321   1    163    162    167
   322   1    162    163    164
   323   3    162    163    197
   324   3    164    163    197
   325   1    163    164    165
   326   3    163    164    198
   327   3    165    164    198
   328   1    164    165    166
   329   2    164    165    667
   330   2    166    165    667
   331   1    165    166    167
   332   3    165    166    199
   333   3    167    166    199
   334   1    166    167    162
   335   3    166    167    200
   336   3    162    167    200
   337   1    169    168    173
   338   3    169    168    201
   339   3    173    168    201
   340   1    168    169    170
   341   3    168    169    202
   342   3    170    169    202
   343   1    169    170    171
   344   4    169    170    174
   345   4    171    170    174
   346   1    170    171    172
   347   3    170    171    203
   348   3    172    171    203
   349   1    171    172    173
   350   3    171    172    204
   351   3    173    172    204
   352   1    168    173    172
   353   4    168    173    161
   354   4    172    173    161
   355   5    170    174    178
   356   5    170    174    181
   357   5    170    174    192
   358   5    178    174    181
   359   5    178    174    192
   360   5    181    174    192
   361   1    176    175    180
   362   2    176    175    638
   363   2    180    175    638
   364   1    175    176    177
   365   3    175    176    205
   366   3    177    176    205
   367   1    176    177    178
   368   3    176    177    206
   369   3    178    177    206
   370   4    177    178    174
   371   1    177    178    179
   372   4    179    178    174
   373   1    178    179    180
   374   3    178    179    207
   375   3    180    179    207
   376   1    175    180    179
   377   3    175    180    208
   378   3    179    180    208
   379   4    182    181    174
   380   4    186    181    174
   381   1    182    181    186
   382   1    181    182    183
   383   3    181    182    209
   384   3    183    182    209
   385   1    182    183    184
   386   3    182    183    210
   387   3    184    183    210
   388   1    183    184    185
   389   2    183    184    643
   390   2    185    184    643
   391   1    184    185    186
   392   3    184    185    211
   393   3    186    185    211
   394   1    185    186    181
   395   3    185    186    212
   396   3    181    186    212
   397   1    188    187    192
   398   3    188    187    213
   399   3    192    187    213
   400   1    187    188    189
   401   3    187    188    214
   402   3    189    188    214
   403   1    188    189    190
   404   2    188    189    662
   405   2    190    189    662
   406   1    189    190    191
   407   3    189    190    215
   408   3    191    190    215
   409   1    190    191    192
   410   3    190    191    216
   411   3    192    191    216
   412   4    191    192    174
   413   1    191    192    187
   414   4    187    192    174
   415   1    218    217    222
   416   2    218    217    632
   417   2    222    217    632
   418   1    217    218    219
   419   3    217    218    223
   420   3    219    218    223
   421   1    218    219    220
   422   3    218    219    224
   423   3    220    219    224
   424   1    219    220    221
   425   4    219    220    233
   426   4    221    220    233
   427   1    220    221    222
   428   3    220    221    225
   429   3    222    221    225
   430   1    221    222    217
   431   3    221    222    226
   432   3    217    222    226
   433   1    228    227    232
   434   3    228    227    265
   435   3    232    227    265
   436   1    227    228    229
   437   4    227    228    233
   438   4    229    228    233
   439   1    228    229    230
   440   3    228    229    266
   441   3    230    229    266
   442   1    229    230    231
   443   3    229    230    267
   444   3    231    230    267
   445   1    230    231    232
   446   2    230    231    644
   447   2    232    231    644
   448   1    227    232    231
   449   3    227    232    268
   450   3    231    232    268
   451   5    228    233    220
   452   5    228    233    234
   453   5    228    233    245
   454   5    220    233    234
   455   5    220    233    245
   456   5    234    233    245
   457   4    235    234    233
   458   4    239    234    233
   459   1    235    234    239
   460   1    234    235    236
   461   3    234    235    269
   462   3    236    235    269
   463   1    235    236    237
   464   3    235    236    270
   465   3    237    236    270
   466   1    236    237    238
   467   2    236    237    674
   468   2    238    237    674
   469   1    237    238    239
   470   3    237    238    271
   471   3    239    238    271
   472   1    238    239    234
   473   3    238    239    272
   474   3    234    239    272
   475   1    241    240    245
   476   3    241    240    273
   477   3    245    240    273
   478   1    240    241    242
   479   3    240    241    274
   480   3    242    241    274
   481   1    241    242    243
   482   4    241    242    246
   483   4    243    242    246
   484   1    242    243    244
   485   3    242    243    275
   486   3    244    243    275
   487   1    243    244    245
   488   3    243    244    276
   489   3    245    244    276
   490   4    240    245    233
   491   4    244    245    233
   492   1    240    245    244
   493   5    242    246    250
   494   5    242    246    253
   495   5    242    246    264
   496   5    250    246    253
   497   5    250    246    264
   498   5    253    246    264
   499   1    248    247    252
   500   2    248    247    703
   501   2    252    247    703
   502   1    247    248    249
   503   3    247    248    277
   504   3    249    248    277
   505   1    248    249    250
   506   3    248    249    278
   507   3    250    249    278
   508   4    249    250    246
   509   1    249    250    251
   510   4    251    250    246
   511   1    250    251    252
   512   3    250    251    279
   513   3    252    251    279
   514   1    247    252    251
   515   3    247    252    280
   516   3    251    252    280
   517   4    254    253    246
   518   4    258    253    246
   519   1    254    253    258
   520   1    253    254    255
   521   3    253    254    281
   522   3    255    254    281
   523   1    254    255    256
   524   3    254    255    282
   525   3    256    255    282
   526   1    255    256    257
   527   2    255    256    649
   528   2    257    256    649
   529   1    256    257    258
   530   3    256    257    283
   531   3    258    257    283
   532   1    253    258    257
   533   3    253    258    284
   534   3    257    258    284
   535   1    260    259    264
   536   3    260    259    285
   537   3    264    259    285
   538   1    259    260    261
   539   3    259    260    286
   540   3    261    260    286
   541   1    260    261    262
   542   2    260    261    679
   543   2    262    261    679
   544   1    261    262    263
   545   3    261    262    287
   546   3    263    262    287
   547   1    262    263    264
   548   3    262    263    288
   549   3    264    263    288
   550   4    259    264    246
   551   1    259    264    263
   552   4    263    264    246
   553   1    290    289    294
   554   2    290    289    602
   555   2    294    289    602
   556   1    289    290    291
   557   3    289    290    295
   558   3    291    290    295
   559   1    290    291    292
   560   3    290    291    296
   561   3    292    291    296
   562   1    291    292    293
   563   4    291    292    305
   564   4    293    292    305
   565   1    292    293    294
   566   3    292    293    297
   567   3    294    293    297
   568   1    293    294    289
   569   3    293    294    298
   570   3    289    294    298
   571   1    300    299    304
   572   3    300    299    337
   573   3    304    299    337
   574   1    299    300    301
   575   4    299    300    305
   576   4    301    300    305
   577   1    300    301    302
   578   3    300    301    338
   579   3    302    301    338
   580   1    301    302    303
   581   3    301    302    339
   582   3    303    302    339
   583   1    302    303    304
   584   2    302    303    626
   585   2    304    303    626
   586   1    303    304    299
   587   3    303    304    340
   588   3    299    304    340
   589   5    292    305    300
   590   5    292    305    306
   591   5    292    305    317
   592   5    300    305    306
   593   5    300    305    317
   594   5    306    305    317
   595   4    307    306    305
   596   4    311    306    305
   597   1    307    306    311
   598   1    306    307    308
   599   3    306    307    341
   600   3    308    307    341
   601   1    307    308    309
   602   3    307    308    342
   603   3    309    308    342
   604   1    308    309    310
   605   2    308    309    608
   606   2    310    309    608
   607   1    309    310    311
   608   3    309    310    343
   609   3    311    310    343
   610   1    306    311    310
   611   3    306    311    344
   612   3    310    311    344
   613   1    313    312    317
   614   3    313    312    345
   615   3    317    312    345
   616   1    312    313    314
   617   3    312    313    346
   618   3    314    313    346
   619   1    313    314    315
   620   4    313    314    318
   621   4    315    314    318
   622   1    314    315    316
   623   3    314    315    347
   624   3    316    315    347
   625   1    315    316    317
   626   3    315    316    348
   627   3    317    316    348
   628   1    312    317    316
   629   4    312    317    305
   630   4    316    317    305
   631   5    314    318    322
   632   5    314    318    325
   633   5    314    318    336
   634   5    322    318    325
   635   5    322    318    336
   636   5    325    318    336
   637   1    320    319    324
   638   2    320    319    698
   639   2    324    319    698
   640   1    319    320    321
   641   3    319    320    349
   642   3    321    320    349
   643   1    320    321    322
   644   3    320    321    350
   645   3    322    321    350
   646   4    321    322    318
   647   1    321    322    323
   648   4    323    322    318
   649   1    322    323    324
   650   3    322    323    351
   651   3    324    323    351
   652   1    323    324    319
   653   3    323    324    352
   654   3    319    324    352
   655   4    326    325    318
   656   4    330    325    318
   657   1    326    325    330
   658   1    325    326    327
   659   3    325    326    353
   660   3    327    326    353
   661   1    326    327    328
   662   3    326    327    354
   663   3    328    327    354
   664   1    327    328    329
   665   2    327    328    619
   666   2    329    328    619
   667   1    328    329    330
   668   3    328    329    355
   669   3    330    329    355
   670   1    329    330    325
   671   3    329    330    356
   672   3    325    330    356
   673   1    332    331    336
   674   3    332    331    357
   675   3    336    331    357
   676   1    331    332    333
   677   3    331    332    358
   678   3    333    332    358
   679   1    332    333    334
   680   2    332    333    613
   681   2    334    333    613
   682   1    333    334    335
   683   3    333    334    359
   684   3    335    334    359
   685   1    334    335    336
   686   3    334    335    360
   687   3    336    335    360
   688   4    331    336    318
   689   4    335    336    318
   690   1    331    336    335
   691   1    362    361    366
   692   2    362    361    584
   693   2    366    361    584
   694   1    361    362    363
   695   3    361    362    367
   696   3    363    362    367
   697   1    362    363    364
   698   3    362    363    368
   699   3    364    363    368
   700   1    363    364    365
   701   4    363    364    377
   702   4    365    364    377
   703   1    364    365    366
   704   3    364    365    369
   705   3    366    365    369
   706   1    361    366    365
   707   3    361    366    370
   708   3    365    366    370
   709   1    372    371    376
   710   3    372    371    409
   711   3    376    371    409
   712   1    371    372    373
   713   4    371    372    377
   714   4    373    372    377
   715   1    372    373    374
   716   3    372    373    410
   717   3    374    373    410
   718   1    373    374    375
   719   3    373    374    411
   720   3    375    374    411
   721   1    374    375    376
   722   2    374    375    595
   723   2    376    375    595
   724   1    375    376    371
   725   3    375    376    412
   726   3    371    376    412
   727   5    372    377    364
   728   5    372    377    378
   729   5    372    377    389
   730   5    364    377    378
   731   5    364    377    389
   732   5    378    377    389
   733   4    379    378    377
   734   4    383    378    377
   735   1    379    378    383
   736   1    378    379    380
   737   3    378    379    413
   738   3    380    379    413
   739   1    379    380    381
   740   3    379    380    414
   741   3    381    380    414
   742   1    380    381    382
   743   2    380    381    620
   744   2    382    381    620
   745   1    381    382    383
   746   3    381    382    415
   747   3    383    382    415
   748   1    378    383    382
   749   3    378    383    416
   750   3    382    383    416
   751   1    385    384    389
   752   3    385    384    417
   753   3    389    384    417
   754   1    384    385    386
   755   3    384    385    418
   756   3    386    385    418
   757   1    385    386    387
   758   4    385    386    390
   759   4    387    386    390
   760   1    386    387    388
   761   3    386    387    419
   762   3    388    387    419
   763   1    387    388    389
   764   3    387    388    420
   765   3    389    388    420
   766   4    384    389    377
   767   1    384    389    388
   768   4    388    389    377
   769   5    386    390    394
   770   5    386    390    397
   771   5    386    390    408
   772   5    394    390    397
   773   5    394    390    408
   774   5    397    390    408
   775   1    392    391    396
   776   2    392    391    686
   777   2    396    391    686
   778   1    391    392    393
   779   3    391    392    421
   780   3    393    392    421
   781   1    392    393    394
   782   3    392    393    422
   783   3    394    393    422
   784   4    393    394    390
   785   4    395    394    390
   786   1    393    394    395
   787   1    394    395    396
   788   3    394    395    423
   789   3    396    395    423
   790   1    395    396    391
   791   3    395    396    424
   792   3    391    396    424
   793   4    398    397    390
   794   4    402    397    390
   795   1    398    397    402
   796   1    397    398    399
   797   3    397    398    425
   798   3    399    398    425
   799   1    398    399    400
   800   3    398    399    426
   801   3    400    399    426
   802   1    399    400    401
   803   2    399    400    589
   804   2    401    400    589
   805   1    400    401    402
   806   3    400    401    427
   807   3    402    401    427
   808   1    397    402    401
   809   3    397    402    428
   810   3    401    402    428
   811   1    404    403    408
   812   3    404    403    429
   813   3    408    403    429
   814   1    403    404    405
   815   3    403    404    430
   816   3    405    404    430
   817   1    404    405    406
   818   2    404    405    625
   819   2    406    405    625
   820   1    405    406    407
   821   3    405    406    431
   822   3    407    406    431
   823   1    406    407    408
   824   3    406    407    432
   825   3    408    407    432
   826   1    403    408    407
   827   4    403    408    390
   828   4    407    408    390
   829   1    434    433    438
   830   2    434    433    692
   831   2    438    433    692
   832   1    433    434    435
   833   3    433    434    439
   834   3    435    434    439
   835   1    434    435    436
   836   3    434    435    440
   837   3    436    435    440
   838   1    435    436    437
   839   4    435    436    449
   840   4    437    436    449
   841   1    436    437    438
   842   3    436    437    441
   843   3    438    437    441
   844   1    437    438    433
   845   3    437    438    442
   846   3    433    438    442
   847   1    444    443    448
   848   3    444    443    481
   849   3    448    443    481
   850   1    443    444    445
   851   4    443    444    449
   852   4    445    444    449
   853   1    444    445    446
   854   3    444    445    482
   855   3    446    445    482
   856   1    445    446    447
   857   3    445    446    483
   858   3    447    446    483
   859   1    446    447    448
   860   2    446    447    590
   861   2    448    447    590
   862   1    443    448    447
   863   3    443    448    484
   864   3    447    448    484
   865   5    444    449    436
   866   5    444    449    450
   867   5    444    449    461
   868   5    436    449    450
   869   5    436    449    461
   870   5    450    449    461
   871   4    451    450    449
   872   4    455    450    449
   873   1    451    450    455
   874   1    450    451    452
   875   3    450    451    485
   876   3    452    451    485
   877   1    451    452    453
   878   3    451    452    486
   879   3    453    452    486
   880   1    452    453    454
   881   2    452    453    607
   882   2    454    453    607
   883   1    453    454    455
   884   3    453    454    487
   885   3    455    454    487
   886   1    450    455    454
   887   3    450    455    488
   888   3    454    455    488
   889   1    457    456    461
   890   3    457    456    489
   891   3    461    456    489
   892   1    456    457    458
   893   3    456    457    490
   894   3    458    457    490
   895   1    457    458    459
   896   4    457    458    462
   897   4    459    458    462
   898   1    458    459    460
   899   3    458    459    491
   900   3    460    459    491
   901   1    459    460    461
   902   3    459    460    492
   903   3    461    460    492
   904   1    456    461    460
   905   4    456    461    449
   906   4    460    461    449
   907   5    458    462    466
   908   5    458    462    469
   909   5    458    462    480
   910   5    466    462    469
   911   5    466    462    480
   912   5    469    462    480
   913   1    464    463    468
   914   2    464    463    578
   915   2    468    463    578
   916   1    463    464    465
   917   3    463    464    493
   918   3    465    464    493
   919   1    464    465    466
   920   3    464    465    494
   921   3    466    465    494
   922   4    465    466    462
   923   1    465    466    467
   924   4    467    466    462
   925   1    466    467    468
   926   3    466    467    495
   927   3    468    467    495
   928   1    463    468    467
   929   3    463    468    496
   930   3    467    468    496
   931   4    470    469    462
   932   4    474    469    462
   933   1    470    469    474
   934   1    469    470    471
   935   3    469    470    497
   936   3    471    470    497
   937   1    470    471    472
   938   3    470    471    498
   939   3    472    471    498
   940   1    471    472    473
   941   2    471    472    596
   942   2    473    472    596
   943   1    472    473    474
   944   3    472    473    499
   945   3    474    473    499
   946   1    473    474    469
   947   3    473    474    500
   948   3    469    474    500
   949   1    476    475    480
   950   3    476    475    501
   951   3    480    475    501
   952   1    475    476    477
   953   3    475    476    502
   954   3    477    476    502
   955   1    476    477    478
   956   2    476    477    614
   957   2    478    477    614
   958   1    477    478    479
   959   3    477    478    503
   960   3    479    478    503
   961   1    478    479    480
   962   3    478    479    504
   963   3    480    479    504
   964   4    479    480    462
   965   4    475    480    462
   966   1    479    480    475
   967   1    506    505    510
   968   2    506    505    577
   969   2    510    505    577
   970   1    505    506    507
   971   3    505    506    511
   972   3    507    506    511
   973   1    506    507    508
   974   3    506    507    512
   975   3    508    507    512
   976   1    507    508    509
   977   4    507    508    521
   978   4    509    508    521
   979   1    508    509    510
   980   3    508    509    513
   981   3    510    509    513
   982   1    505    510    509
   983   3    505    510    514
   984   3    509    510    514
   985   1    516    515    520
   986   3    516    515    553
   987   3    520    515    553
   988   1    515    516    517
   989   4    515    516    521
   990   4    517    516    521
   991   1    516    517    518
   992   3    516    517    554
   993   3    518    517    554
   994   1    517    518    519
   995   3    517    518    555
   996   3    519    518    555
   997   1    518    519    520
   998   2    518    519    583
   999   2    520    519    583
  1000   1    515    520    519
  1001   3    515    520    556
  1002   3    519    520    556
  1003   5    508    521    516
  1004   5    508    521    522
  1005   5    508    521    533
  1006   5    516    521    522
  1007   5    516    521    533
  1008   5    522    521    533
  1009   4    523    522    521
  1010   4    527    522    521
  1011   1    523    522    527
  1012   1    522    523    524
  1013   3    522    523    557
  1014   3    524    523    557
  1015   1    523    524    525
  1016   3    523    524    558
  1017   3    525    524    558
  1018   1    524    525    526
  1019   2    524    525    601
  1020   2    526    525    601
  1021   1    525    526    527
  1022   3    525    526    559
  1023   3    527    526    559
  1024   1    522    527    526
  1025   3    522    527    560
  1026   3    526    527    560
  1027   1    529    528    533
  1028   3    529    528    561
  1029   3    533    528    561
  1030   1    528    529    530
  1031   3    528    529    562
  1032   3    530    529    562
  1033   1    529    530    531
  1034   4    529    530    534
  1035   4    531    530    534
  1036   1    530    531    532
  1037   3    530    531    563
  1038   3    532    531    563
  1039   1    531    532    533
  1040   3    531    532    564
  1041   3    533    532    564
  1042   4    528    533    521
  1043   4    532    533    521
  1044   1    528    533    532
  1045   5    530    534    538
  1046   5    530    534    541
  1047   5    530    534    552
  1048   5    538    534    541
  1049   5    538    534    552
  1050   5    541    534    552
  1051   1    536    535    540
  1052   2    536    535    637
  1053   2    540    535    637
  1054   1    535    536    537
  1055   3    535    536    565
  1056   3    537    536    565
  1057   1    536    537    538
  1058   3    536    537    566
  1059   3    538    537    566
  1060   4    537    538    534
  1061   1    537    538    539
  1062   4    539    538    534
  1063   1    538    539    540
  1064   3    538    539    567
  1065   3    540    539    567
  1066   1    539    540    535
  1067   3    539    540    568
  1068   3    535    540    568
  1069   4    542    541    534
  1070   4    546    541    534
  1071   1    542    541    546
  1072   1    541    542    543
  1073   3    541    542    569
  1074   3    543    542    569
  1075   1    542    543    544
  1076   3    542    543    570
  1077   3    544    543    570
  1078   1    543    544    545
  1079   2    543    544    655
  1080   2    545    544    655
  1081   1    544    545    546
  1082   3    544    545    571
  1083   3    546    545    571
  1084   1    541    546    545
  1085   3    541    546    572
  1086   3    545    546    572
  1087   1    548    547    552
  1088   3    548    547    573
  1089   3    552    547    573
  1090   1    547    548    549
  1091   3    547    548    574
  1092   3    549    548    574
  1093   1    548    549    550
  1094   2    548    549    631
  1095   2    550    549    631
  1096   1    549    550    551
  1097   3    549    550    575
  1098   3    551    550    575
  1099   1    550    551    552
  1100   3    550    551    576
  1101   3    552    551    576
  1102   1    547    552    551
  1103   4    547    552    534
  1104   4    551    552    534
  1105   6    505    577    578
  1106   7    505    577    579
  1107   7    505    577    580
  1108   8    579    577    578
  1109   8    580    577    578
  1110   9    579    577    580
  1111   6    463    578    577
  1112   7    463    578    581
  1113   7    463    578    582
  1114   8    581    578    577
  1115   8    582    578    577
  1116   9    581    578    582
  1117   6    519    583    584
  1118   7    519    583    585
  1119   7    519    583    586
  1120   8    585    583    584
  1121   8    586    583    584
  1122   9    585    583    586
  1123   6    361    584    583
  1124   8    587    584    583
  1125   8    588    584    583
  1126   7    361    584    587
  1127   7    361    584    588
  1128   9    587    584    588
  1129   6    400    589    590
  1130   7    400    589    591
  1131   7    400    589    592
  1132   8    591    589    590
  1133   8    592    589    590
  1134   9    591    589    592
  1135   6    447    590    589
  1136   7    447    590    593
  1137   7    447    590    594
  1138   8    593    590    589
  1139   8    594    590    589
  1140   9    593    590    594
  1141   6    375    595    596
  1142   7    375    595    597
  1143   7    375    595    598
  1144   8    597    595    596
  1145   8    598    595    596
  1146   9    597    595    598
  1147   6    472    596    595
  1148   8    599    596    595
  1149   8    600    596    595
  1150   7    472    596    599
  1151   7    472    596    600
  1152   9    599    596    600
  1153   6    525    601    602
  1154   7    525    601    603
  1155   7    525    601    604
  1156   8    603    601    602
  1157   8    604    601    602
  1158   9    603    601    604
  1159   6    289    602    601
  1160   8    605    602    601
  1161   8    606    602    601
  1162   7    289    602    605
  1163   7    289    602    606
  1164   9    605    602    606
  1165   6    453    607    608
  1166   7    453    607    609
  1167   7    453    607    610
  1168   8    609    607    608
  1169   8    610    607    608
  1170   9    609    607    610
  1171   6    309    608    607
  1172   7    309    608    611
  1173   7    309    608    612
  1174   8    611    608    607
  1175   8    612    608    607
  1176   9    611    608    612
  1177   6    333    613    614
  1178   7    333    613    615
  1179   7    333    613    616
  1180   8    615    613    614
  1181   8    616    613    614
  1182   9    615    613    616
  1183   6    477    614    613
  1184   7    477    614    617
  1185   7    477    614    618
  1186   8    617    614    613
  1187   8    618    614    613
  1188   9    617    614    618
  1189   6    328    619    620
  1190   7    328    619    621
  1191   7    328    619    622
  1192   8    621    619    620
  1193   8    622    619    620
  1194   9    621    619    622
  1195   6    381    620    619
  1196   8    623    620    619
  1197   8    624    620    619
  1198   7    381    620    623
  1199   7    381    620    624
  1200   9    623    620    624
  1201   6    405    625    626
  1202   7    405    625    627
  1203   7    405    625    628
  1204   8    627    625    626
  1205   8    628    625    626
  1206   9    627    625    628
  1207   6    303    626    625
  1208   7    303    626    629
  1209   7    303    626    630
  1210   8    629    626    625
  1211   8    630    626    625
  1212   9    629    626    630
  1213   6    549    631    632
  1214   7    549    631    633
  1215   7    549    631    634
  1216   8    633    631    632
  1217   8    634    631    632
  1218   9    633    631    634
  1219   6    217    632    631
  1220   7    217    632    635
  1221   7    217    632    636
  1222   8    635    632    631
  1223   8    636    632    631
  1224   9    635    632    636
  1225   6    535    637    638
  1226   7    535    637    639
  1227   7    535    637    640
  1228   8    639    637    638
  1229   8    640    637    638
  1230   9    639    637    640
  1231   6    175    638    637
  1232   8    641    638    637
  1233   8    642    638    637
  1234   7    175    638    641
  1235   7    175    638    642
  1236   9    641    638    642
  1237   6    184    643    644
  1238   7    184    643    645
  1239   7    184    643    646
  1240   8    645    643    644
  1241   8    646    643    644
  1242   9    645    643    646
  1243   6    231    644    643
  1244   8    647    644    643
  1245   8    648    644    643
  1246   7    231    644    647
  1247   7    231    644    648
  1248   9    647    644    648
  1249   6    256    649    650
  1250   7    256    649    651
  1251   7    256    649    652
  1252   8    651    649    650
  1253   8    652    649    650
  1254   9    651    649    652
  1255   6    159    650    649
  1256   7    159    650    653
  1257   7    159    650    654
  1258   8    653    650    649
  1259   8    654    650    649
  1260   9    653    650    654
  1261   6    544    655    656
  1262   7    544    655    657
  1263   7    544    655    658
  1264   8    657    655    656
  1265   8    658    655    656
  1266   9    657    655    658
  1267   6     73    656    655
  1268   7     73    656    659
  1269   7     73    656    660
  1270   8    659    656    655
  1271   8    660    656    655
  1272   9    659    656    660
  1273   6    117    661    662
  1274   7    117    661    663
  1275   7    117    661    664
  1276   8    663    661    662
  1277   8    664    661    662
  1278   9    663    661    664
  1279   6    189    662    661
  1280   8    665    662    661
  1281   8    666    662    661
  1282   7    189    662    665
  1283   7    189    662    666
  1284   9    665    662    666
  1285   6    165    667    668
  1286   7    165    667    669
  1287   7    165    667    670
  1288   8    669    667    668
  1289   8    670    667    668
  1290   9    669    667    670
  1291   6     93    668    667
  1292   8    671    668    667
  1293   8    672    668    667
  1294   7     93    668    671
  1295   7     93    668    672
  1296   9    671    668    672
  1297   6    112    673    674
  1298   7    112    673    675
  1299   7    112    673    676
  1300   8    675    673    674
  1301   8    676    673    674
  1302   9    675    673    676
  1303   6    237    674    673
  1304   7    237    674    677
  1305   7    237    674    678
  1306   8    677    674    673
  1307   8    678    674    673
  1308   9    677    674    678
  1309   6    261    679    680
  1310   7    261    679    681
  1311   7    261    679    682
  1312   8    681    679    680
  1313   8    682    679    680
  1314   9    681    679    682
  1315   6     87    680    679
  1316   7     87    680    683
  1317   7     87    680    684
  1318   8    683    680    679
  1319   8    684    680    679
  1320   9    683    680    684
  1321   6     31    685    686
  1322   7     31    685    687
  1323   7     31    685    688
  1324   8    687    685    686
  1325   8    688    685    686
  1326   9    687    685    688
  1327   6    391    686    685
  1328   7    391    686    689
  1329   7    391    686    690
  1330   8    689    686    685
  1331   8    690    686    685
  1332   9    689    686    690
  1333   6     45    691    692
  1334   7     45    691    693
  1335   7     45    691    694
  1336   8    693    691    692
  1337   8    694    691    692
  1338   9    693    691    694
  1339   6    433    692    691
  1340   7    433    692    695
  1341   7    433    692    696
  1342   8    695    692    691
  1343   8    696    692    691
  1344   9    695    692    696
  1345   6     40    697    698
  1346   7     40    697    699
  1347   7     40    697    700
  1348   8    699    697    698
  1349   8    700    697    698
  1350   9    699    697    700
  1351   6    319    698    697
  1352   8    701    698    697
  1353   8    702    698    697
  1354   7    319    698    701
  1355   7    319    698    702
  1356   9    701    698    702
  1357   6    247    703    704
  1358   7    247    703    705
  1359   7    247    703    706
  1360   8    705    703    704
  1361   8    706    703    704
  1362   9    705    703    706
  1363   6     15    704    703
  1364   7     15    704    707
  1365   7     15    704    708
  1366   8    707    704    703
  1367   8    708    704    703
  1368   9    707    704    708
  1369   6      1    709    710
  1370   7      1    709    711
  1371   7      1    709    712
  1372   8    711    709    710
  1373   8    712    709    710
  1374   9    711    709    712
  1375   6    103    710    709
  1376   7    103    710    713
  1377   7    103    710    714
  1378   8    713    710    709
  1379   8    714    710    709
  1380   9    713    710    714
  1381   6    145    715    716
  1382   7    145    715    717
  1383   7    145    715    718
  1384   8    717    715    716
  1385   8    718    715    716
  1386   9    717    715    718
  1387   6     21    716    715
  1388   8    719    716    715
  1389   8    720    716    715
  1390   7     21    716    719
  1391   7     21    716    720
  1392   9    719    716    720

Dihedrals

     1   1      6      1      2      3
     2   2      6      1      2      7
     3   3      3      2      1    709
     4   4      7      2      1    709
     5   1      2      1      6      5
     6   2      2      1      6     10
     7   3      5      6      1    709
     8   4     10      6      1    709
     9   5      2      1    709    710
    10   6      2      1    709    711
    11   6      2      1    709    712
    12   5      6      1    709    710
    13   6      6      1    709    711
    14   6      6      1    709    712
    15   1      1      2      3      4
    16   2      1      2      3      8
    17   2      4      3      2      7
    18   7      7      2      3      8
    19   1      2      3      4      5
    20   8      2      3      4     17
    21   2      5      4      3      8
    22   9      8      3      4     17
    23   1      3      4      5      6
    24   2      3      4      5      9
    25   8      6      5      4     17
    26   9      9      5      4     17
    27  10      3      4     17     12
    28  10      3      4     17     18
    29  10      3      4     17     29
    30  10      5      4     17     12
    31  10      5      4     17     18
    32  10      5      4     17     29
    33   1      4      5      6      1
    34   2      4      5      6     10
    35   2      1      6      5      9
    36   7      9      5      6     10
    37   1     16     11     12     13
    38   8     16     11     12     17
    39   2     13     12     11     49
    40   9     49     11     12     17
    41   1     12     11     16     15
    42   2     12     11     16     52
    43   2     15     16     11     49
    44   7     49     11     16     52
    45   1     11     12     13     14
    46   2     11     12     13     50
    47   8     14     13     12     17
    48   9     50     13     12     17
    49  10     11     12     17      4
    50  10     11     12     17     18
    51  10     11     12     17     29
    52  10     13     12     17      4
    53  10     13     12     17     18
    54  10     13     12     17     29
    55   1     12     13     14     15
    56   2     12     13     14     51
    57   2     15     14     13     50
    58   7     50     13     14     51
    59   1     13     14     15     16
    60   3     13     14     15    704
    61   2     16     15     14     51
    62   4     51     14     15    704
    63   1     14     15     16     11
    64   2     14     15     16     52
    65   3     11     16     15    704
    66   4     52     16     15    704
    67   5     14     15    704    703
    68   6     14     15    704    707
    69   6     14     15    704    708
    70   5     16     15    704    703
    71   6     16     15    704    707
    72   6     16     15    704    708
    73  10     19     18     17      4
    74  10     23     18     17      4
    75  10     19     18     17     12
    76  10     23     18     17     12
    77  10     19     18     17     29
    78  10     23     18     17     29
    79  10     24     29     17      4
    80  10     28     29     17      4
    81  10     24     29     17     12
    82  10     28     29     17     12
    83  10     24     29     17     18
    84  10     28     29     17     18
    85   8     20     19     18     17
    86   9     53     19     18     17
    87   1     23     18     19     20
    88   2     23     18     19     53
    89   8     22     23     18     17
    90   9     56     23     18     17
    91   1     19     18     23     22
    92   2     19     18     23     56
    93   1     18     19     20     21
    94   2     18     19     20     54
    95   2     21     20     19     53
    96   7     53     19     20     54
    97   1     19     20     21     22
    98   3     19     20     21    716
    99   2     22     21     20     54
   100   4     54     20     21    716
   101   1     20     21     22     23
   102   2     20     21     22     55
   103   3     23     22     21    716
   104   4     55     22     21    716
   105   5     20     21    716    715
   106   6     20     21    716    719
   107   6     20     21    716    720
   108   5     22     21    716    715
   109   6     22     21    716    719
   110   6     22     21    716    720
   111   1     21     22     23     18
   112   2     21     22     23     56
   113   2     18     23     22     55
   114   7     55     22     23     56
   115   1     29     24     25     26
   116   2     29     24     25     58
   117   2     26     25     24     57
   118   7     57     24     25     58
   119   8     25     24     29     17
   120   1     25     24     29     28
   121   9     57     24     29     17
   122   2     28     29     24     57
   123   1     24     25     26     27
   124   8     24     25     26     30
   125   2     27     26     25     58
   126   9     58     25     26     30
   127   1     25     26     27     28
   128   2     25     26     27     59
   129   8     28     27     26     30
   130   9     59     27     26     30
   131  10     25     26     30     34
   132  10     25     26     30     37
   133  10     25     26     30     48
   134  10     27     26     30     34
   135  10     27     26     30     37
   136  10     27     26     30     48
   137   1     26     27     28     29
   138   2     26     27     28     60
   139   2     29     28     27     59
   140   7     59     27     28     60
   141   8     27     28     29     17
   142   1     27     28     29     24
   143   9     60     28     29     17
   144   2     24     29     28     60
   145  10     33     34     30     26
   146  10     35     34     30     26
   147  10     33     34     30     37
   148  10     35     34     30     37
   149  10     33     34     30     48
   150  10     35     34     30     48
   151  10     38     37     30     26
   152  10     42     37     30     26
   153  10     38     37     30     34
   154  10     42     37     30     34
   155  10     38     37     30     48
   156  10     42     37     30     48
   157  10     47     48     30     26
   158  10     43     48     30     26
   159  10     47     48     30     34
   160  10     43     48     30     34
   161  10     47     48     30     37
   162  10     43     48     30     37
   163   1     36     31     32     33
   164   2     36     31     32     61
   165   3     33     32     31    685
   166   4     61     32     31    685
   167   1     32     31     36     35
   168   2     32     31     36     64
   169   3     35     36     31    685
   170   4     64     36     31    685
   171   5     32     31    685    686
   172   6     32     31    685    687
   173   6     32     31    685    688
   174   5     36     31    685    686
   175   6     36     31    685    687
   176   6     36     31    685    688
   177   1     31     32     33     34
   178   2     31     32     33     62
   179   2     34     33     32     61
   180   7     61     32     33     62
   181   8     32     33     34     30
   182   1     32     33     34     35
   183   9     62     33     34     30
   184   2     35     34     33     62
   185   1     33     34     35     36
   186   2     33     34     35     63
   187   8     36     35     34     30
   188   9     63     35     34     30
   189   1     34     35     36     31
   190   2     34     35     36     64
   191   2     31     36     35     63
   192   7     63     35     36     64
   193   8     39     38     37     30
   194   9     65     38     37     30
   195   1     42     37     38     39
   196   2     42     37     38     65
   197   8     41     42     37     30
   198   9     68     42     37     30
   199   1     38     37     42     41
   200   2     38     37     42     68
   201   1     37     38     39     40
   202   2     37     38     39     66
   203   2     40     39     38     65
   204   7     65     38     39     66
   205   1     38     39     40     41
   206   3     38     39     40    697
   207   2     41     40     39     66
   208   4     66     39     40    697
   209   1     39     40     41     42
   210   2     39     40     41     67
   211   3     42     41     40    697
   212   4     67     41     40    697
   213   5     39     40    697    698
   214   6     39     40    697    699
   215   6     39     40    697    700
   216   5     41     40    697    698
   217   6     41     40    697    699
   218   6     41     40    697    700
   219   1     40     41     42     37
   220   2     40     41     42     68
   221   2     37     42     41     67
   222   7     67     41     42     68
   223   1     48     43     44     45
   224   2     48     43     44     70
   225   2     45     44     43     69
   226   7     69     43     44     70
   227   8     44     43     48     30
   228   1     44     43     48     47
   229   9     69     43     48     30
   230   2     47     48     43     69
   231   1     43     44     45     46
   232   3     43     44     45    691
   233   2     46     45     44     70
   234   4     70     44     45    691
   235   1     44     45     46     47
   236   2     44     45     46     71
   237   3     47     46     45    691
   238   4     71     46     45    691
   239   5     44     45    691    692
   240   6     44     45    691    693
   241   6     44     45    691    694
   242   5     46     45    691    692
   243   6     46     45    691    693
   244   6     46     45    691    694
   245   1     45     46     47     48
   246   2     45     46     47     72
   247   2     48     47     46     71
   248   7     71     46     47     72
   249   8     46     47     48     30
   250   1     46     47     48     43
   251   9     72     47     48     30
   252   2     43     48     47     72
   253   1     78     73     74     75
   254   2     78     73     74     79
   255   3     75     74     73    656
   256   4     79     74     73    656
   257   1     74     73     78     77
   258   2     74     73     78     82
   259   3     77     78     73    656
   260   4     82     78     73    656
   261   5     74     73    656    655
   262   6     74     73    656    659
   263   6     74     73    656    660
   264   5     78     73    656    655
   265   6     78     73    656    659
   266   6     78     73    656    660
   267   1     73     74     75     76
   268   2     73     74     75     80
   269   2     76     75     74     79
   270   7     79     74     75     80
   271   1     74     75     76     77
   272   8     74     75     76     89
   273   2     77     76     75     80
   274   9     80     75     76     89
   275   1     75     76     77     78
   276   2     75     76     77     81
   277   8     78     77     76     89
   278   9     81     77     76     89
   279  10     75     76     89     84
   280  10     75     76     89     90
   281  10     75     76     89    101
   282  10     77     76     89     84
   283  10     77     76     89     90
   284  10     77     76     89    101
   285   1     76     77     78     73
   286   2     76     77     78     82
   287   2     73     78     77     81
   288   7     81     77     78     82
   289   1     88     83     84     85
   290   8     88     83     84     89
   291   2     85     84     83    121
   292   9    121     83     84     89
   293   1     84     83     88     87
   294   2     84     83     88    124
   295   2     87     88     83    121
   296   7    121     83     88    124
   297   1     83     84     85     86
   298   2     83     84     85    122
   299   8     86     85     84     89
   300   9    122     85     84     89
   301  10     83     84     89     76
   302  10     83     84     89     90
   303  10     83     84     89    101
   304  10     85     84     89     76
   305  10     85     84     89     90
   306  10     85     84     89    101
   307   1     84     85     86     87
   308   2     84     85     86    123
   309   2     87     86     85    122
   310   7    122     85     86    123
   311   1     85     86     87     88
   312   3     85     86     87    680
   313   2     88     87     86    123
   314   4    123     86     87    680
   315   1     86     87     88     83
   316   2     86     87     88    124
   317   3     83     88     87    680
   318   4    124     88     87    680
   319   5     86     87    680    679
   320   6     86     87    680    683
   321   6     86     87    680    684
   322   5     88     87    680    679
   323   6     88     87    680    683
   324   6     88     87    680    684
   325  10     91     90     89     84
   326  10     95     90     89     84
   327  10     91     90     89     76
   328  10     95     90     89     76
   329  10     91     90     89    101
   330  10     95     90     89    101
   331  10    100    101     89     84
   332  10     96    101     89     84
   333  10    100    101     89     76
   334  10     96    101     89     76
   335  10    100    101     89     90
   336  10     96    101     89     90
   337   8     92     91     90     89
   338   9    125     91     90     89
   339   1     95     90     91     92
   340   2     95     90     91    125
   341   8     94     95     90     89
   342   9    128     95     90     89
   343   1     91     90     95     94
   344   2     91     90     95    128
   345   1     90     91     92     93
   346   2     90     91     92    126
   347   2     93     92     91    125
   348   7    125     91     92    126
   349   1     91     92     93     94
   350   3     91     92     93    668
   351   2     94     93     92    126
   352   4    126     92     93    668
   353   1     92     93     94     95
   354   2     92     93     94    127
   355   3     95     94     93    668
   356   4    127     94     93    668
   357   5     92     93    668    667
   358   6     92     93    668    671
   359   6     92     93    668    672
   360   5     94     93    668    667
   361   6     94     93    668    671
   362   6     94     93    668    672
   363   1     93     94     95     90
   364   2     93     94     95    128
   365   2     90     95     94    127
   366   7    127     94     95    128
   367   1    101     96     97     98
   368   2    101     96     97    130
   369   2     98     97     96    129
   370   7    129     96     97    130
   371   1     97     96    101    100
   372   8     97     96    101     89
   373   2    100    101     96    129
   374   9    129     96    101     89
   375   1     96     97     98     99
   376   8     96     97     98    102
   377   2     99     98     97    130
   378   9    130     97     98    102
   379   1     97     98     99    100
   380   2     97     98     99    131
   381   8    100     99     98    102
   382   9    131     99     98    102
   383  10     97     98    102    106
   384  10     97     98    102    109
   385  10     97     98    102    120
   386  10     99     98    102    106
   387  10     99     98    102    109
   388  10     99     98    102    120
   389   1     98     99    100    101
   390   2     98     99    100    132
   391   2    101    100     99    131
   392   7    131     99    100    132
   393   1     99    100    101     96
   394   8     99    100    101     89
   395   2     96    101    100    132
   396   9    132    100    101     89
   397  10    105    106    102     98
   398  10    107    106    102     98
   399  10    105    106    102    109
   400  10    107    106    102    109
   401  10    105    106    102    120
   402  10    107    106    102    120
   403  10    110    109    102     98
   404  10    114    109    102     98
   405  10    110    109    102    106
   406  10    114    109    102    106
   407  10    110    109    102    120
   408  10    114    109    102    120
   409  10    119    120    102     98
   410  10    115    120    102     98
   411  10    119    120    102    106
   412  10    115    120    102    106
   413  10    119    120    102    109
   414  10    115    120    102    109
   415   1    108    103    104    105
   416   2    108    103    104    133
   417   3    105    104    103    710
   418   4    133    104    103    710
   419   1    104    103    108    107
   420   2    104    103    108    136
   421   3    107    108    103    710
   422   4    136    108    103    710
   423   5    104    103    710    709
   424   6    104    103    710    713
   425   6    104    103    710    714
   426   5    108    103    710    709
   427   6    108    103    710    713
   428   6    108    103    710    714
   429   1    103    104    105    106
   430   2    103    104    105    134
   431   2    106    105    104    133
   432   7    133    104    105    134
   433   8    104    105    106    102
   434   1    104    105    106    107
   435   9    134    105    106    102
   436   2    107    106    105    134
   437   1    105    106    107    108
   438   2    105    106    107    135
   439   8    108    107    106    102
   440   9    135    107    106    102
   441   1    106    107    108    103
   442   2    106    107    108    136
   443   2    103    108    107    135
   444   7    135    107    108    136
   445   8    111    110    109    102
   446   9    137    110    109    102
   447   1    114    109    110    111
   448   2    114    109    110    137
   449   8    113    114    109    102
   450   9    140    114    109    102
   451   1    110    109    114    113
   452   2    110    109    114    140
   453   1    109    110    111    112
   454   2    109    110    111    138
   455   2    112    111    110    137
   456   7    137    110    111    138
   457   1    110    111    112    113
   458   3    110    111    112    673
   459   2    113    112    111    138
   460   4    138    111    112    673
   461   1    111    112    113    114
   462   2    111    112    113    139
   463   3    114    113    112    673
   464   4    139    113    112    673
   465   5    111    112    673    674
   466   6    111    112    673    675
   467   6    111    112    673    676
   468   5    113    112    673    674
   469   6    113    112    673    675
   470   6    113    112    673    676
   471   1    112    113    114    109
   472   2    112    113    114    140
   473   2    109    114    113    139
   474   7    139    113    114    140
   475   1    120    115    116    117
   476   2    120    115    116    142
   477   2    117    116    115    141
   478   7    141    115    116    142
   479   1    116    115    120    119
   480   8    116    115    120    102
   481   2    119    120    115    141
   482   9    141    115    120    102
   483   1    115    116    117    118
   484   3    115    116    117    661
   485   2    118    117    116    142
   486   4    142    116    117    661
   487   1    116    117    118    119
   488   2    116    117    118    143
   489   3    119    118    117    661
   490   4    143    118    117    661
   491   5    116    117    661    662
   492   6    116    117    661    663
   493   6    116    117    661    664
   494   5    118    117    661    662
   495   6    118    117    661    663
   496   6    118    117    661    664
   497   1    117    118    119    120
   498   2    117    118    119    144
   499   2    120    119    118    143
   500   7    143    118    119    144
   501   8    118    119    120    102
   502   1    118    119    120    115
   503   9    144    119    120    102
   504   2    115    120    119    144
   505   1    150    145    146    147
   506   2    150    145    146    151
   507   3    147    146    145    715
   508   4    151    146    145    715
   509   1    146    145    150    149
   510   2    146    145    150    154
   511   3    149    150    145    715
   512   4    154    150    145    715
   513   5    146    145    715    716
   514   6    146    145    715    717
   515   6    146    145    715    718
   516   5    150    145    715    716
   517   6    150    145    715    717
   518   6    150    145    715    718
   519   1    145    146    147    148
   520   2    145    146    147    152
   521   2    148    147    146    151
   522   7    151    146    147    152
   523   1    146    147    148    149
   524   8    146    147    148    161
   525   2    149    148    147    152
   526   9    152    147    148    161
   527   1    147    148    149    150
   528   2    147    148    149    153
   529   8    150    149    148    161
   530   9    153    149    148    161
   531  10    147    148    161    156
   532  10    147    148    161    162
   533  10    147    148    161    173
   534  10    149    148    161    156
   535  10    149    148    161    162
   536  10    149    148    161    173
   537   1    148    149    150    145
   538   2    148    149    150    154
   539   2    145    150    149    153
   540   7    153    149    150    154
   541   1    160    155    156    157
   542   8    160    155    156    161
   543   2    157    156    155    193
   544   9    193    155    156    161
   545   1    156    155    160    159
   546   2    156    155    160    196
   547   2    159    160    155    193
   548   7    193    155    160    196
   549   1    155    156    157    158
   550   2    155    156    157    194
   551   8    158    157    156    161
   552   9    194    157    156    161
   553  10    155    156    161    148
   554  10    155    156    161    162
   555  10    155    156    161    173
   556  10    157    156    161    148
   557  10    157    156    161    162
   558  10    157    156    161    173
   559   1    156    157    158    159
   560   2    156    157    158    195
   561   2    159    158    157    194
   562   7    194    157    158    195
   563   1    157    158    159    160
   564   3    157    158    159    650
   565   2    160    159    158    195
   566   4    195    158    159    650
   567   1    158    159    160    155
   568   2    158    159    160    196
   569   3    155    160    159    650
   570   4    196    160    159    650
   571   5    158    159    650    649
   572   6    158    159    650    653
   573   6    158    159    650    654
   574   5    160    159    650    649
   575   6    160    159    650    653
   576   6    160    159    650    654
   577  10    163    162    161    156
   578  10    167    162    161    156
   579  10    163    162    161    148
   580  10    167    162    161    148
   581  10    163    162    161    173
   582  10    167    162    161    173
   583  10    168    173    161    156
   584  10    172    173    161    156
   585  10    168    173    161    148
   586  10    172    173    161    148
   587  10    168    173    161    162
   588  10    172    173    161    162
   589   8    164    163    162    161
   590   9    197    163    162    161
   591   1    167    162    163    164
   592   2    167    162    163    197
   593   8    166    167    162    161
   594   9    200    167    162    161
   595   1    163    162    167    166
   596   2    163    162    167    200
   597   1    162    163    164    165
   598   2    162    163    164    198
   599   2    165    164    163    197
   600   7    197    163    164    198
   601   1    163    164    165    166
   602   3    163    164    165    667
   603   2    166    165    164    198
   604   4    198    164    165    667
   605   1    164    165    166    167
   606   2    164    165    166    199
   607   3    167    166    165    667
   608   4    199    166    165    667
   609   5    164    165    667    668
   610   6    164    165    667    669
   611   6    164    165    667    670
   612   5    166    165    667    668
   613   6    166    165    667    669
   614   6    166    165    667    670
   615   1    165    166    167    162
   616   2    165    166    167    200
   617   2    162    167    166    199
   618   7    199    166    167    200
   619   1    173    168    169    170
   620   2    173    168    169    202
   621   2    170    169    168    201
   622   7    201    168    169    202
   623   1    169    168    173    172
   624   8    169    168    173    161
   625   2    172    173    168    201
   626   9    201    168    173    161
   627   1    168    169    170    171
   628   8    168    169    170    174
   629   2    171    170    169    202
   630   9    202    169    170    174
   631   1    169    170    171    172
   632   2    169    170    171    203
   633   8    172    171    170    174
   634   9    203    171    170    174
   635  10    169    170    174    178
   636  10    169    170    174    181
   637  10    169    170    174    192
   638  10    171    170    174    178
   639  10    171    170    174    181
   640  10    171    170    174    192
   641   1    170    171    172    173
   642   2    170    171    172    204
   643   2    173    172    171    203
   644   7    203    171    172    204
   645   1    171    172    173    168
   646   8    171    172    173    161
   647   2    168    173    172    204
   648   9    204    172    173    161
   649  10    177    178    174    170
   650  10    179    178    174    170
   651  10    177    178    174    181
   652  10    179    178    174    181
   653  10    177    178    174    192
   654  10    179    178    174    192
   655  10    182    181    174    170
   656  10    186    181    174    170
   657  10    182    181    174    178
   658  10    186    181    174    178
   659  10    182    181    174    192
   660  10    186    181    174    192
   661  10    191    192    174    170
   662  10    187    192    174    170
   663  10    191    192    174    178
   664  10    187    192    174    178
   665  10    191    192    174    181
   666  10    187    192    174    181
   667   1    180    175    176    177
   668   2    180    175    176    205
   669   3    177    176    175    638
   670   4    205    176    175    638
   671   1    176    175    180    179
   672   2    176    175    180    208
   673   3    179    180    175    638
   674   4    208    180    175    638
   675   5    176    175    638    637
   676   6    176    175    638    641
   677   6    176    175    638    642
   678   5    180    175    638    637
   679   6    180    175    638    641
   680   6    180    175    638    642
   681   1    175    176    177    178
   682   2    175    176    177    206
   683   2    178    177    176    205
   684   7    205    176    177    206
   685   8    176    177    178    174
   686   1    176    177    178    179
   687   9    206    177    178    174
   688   2    179    178    177    206
   689   1    177    178    179    180
   690   2    177    178    179    207
   691   8    180    179    178    174
   692   9    207    179    178    174
   693   1    178    179    180    175
   694   2    178    179    180    208
   695   2    175    180    179    207
   696   7    207    179    180    208
   697   8    183    182    181    174
   698   9    209    182    181    174
   699   1    186    181    182    183
   700   2    186    181    182    209
   701   8    185    186    181    174
   702   9    212    186    181    174
   703   1    182    181    186    185
   704   2    182    181    186    212
   705   1    181    182    183    184
   706   2    181    182    183    210
   707   2    184    183    182    209
   708   7    209    182    183    210
   709   1    182    183    184    185
   710   3    182    183    184    643
   711   2    185    184    183    210
   712   4    210    183    184    643
   713   1    183    184    185    186
   714   2    183    184    185    211
   715   3    186    185    184    643
   716   4    211    185    184    643
   717   5    183    184    643    644
   718   6    183    184    643    645
   719   6    183    184    643    646
   720   5    185    184    643    644
   721   6    185    184    643    645
   722   6    185    184    643    646
   723   1    184    185    186    181
   724   2    184    185    186    212
   725   2    181    186    185    211
   726   7    211    185    186    212
   727   1    192    187    188    189
   728   2    192    187    188    214
   729   2    189    188    187    213
   730   7    213    187    188    214
   731   1    188    187    192    191
   732   8    188    187    192    174
   733   2    191    192    187    213
   734   9    213    187    192    174
   735   1    187    188    189    190
   736   3    187    188    189    662
   737   2    190    189    188    214
   738   4    214    188    189    662
   739   1    188    189    190    191
   740   2    188    189    190    215
   741   3    191    190    189    662
   742   4    215    190    189    662
   743   5    188    189    662    661
   744   6    188    189    662    665
   745   6    188    189    662    666
   746   5    190    189    662    661
   747   6    190    189    662    665
   748   6    190    189    662    666
   749   1    189    190    191    192
   750   2    189    190    191    216
   751   2    192    191    190    215
   752   7    215    190    191    216
   753   8    190    191    192    174
   754   1    190    191    192    187
   755   9    216    191    192    174
   756   2    187    192    191    216
   757   1    222    217    218    219
   758   2    222    217    218    223
   759   3    219    218    217    632
   760   4    223    218    217    632
   761   1    218    217    222    221
   762   2    218    217    222    226
   763   3    221    222    217    632
   764   4    226    222    217    632
   765   5    218    217    632    631
   766   6    218    217    632    635
   767   6    218    217    632    636
   768   5    222    217    632    631
   769   6    222    217    632    635
   770   6    222    217    632    636
   771   1    217    218    219    220
   772   2    217    218    219    224
   773   2    220    219    218    223
   774   7    223    218    219    224
   775   1    218    219    220    221
   776   8    218    219    220    233
   777   2    221    220    219    224
   778   9    224    219    220    233
   779   1    219    220    221    222
   780   2    219    220    221    225
   781   8    222    221    220    233
   782   9    225    221    220    233
   783  10    219    220    233    228
   784  10    219    220    233    234
   785  10    219    220    233    245
   786  10    221    220    233    228
   787  10    221    220    233    234
   788  10    221    220    233    245
   789   1    220    221    222    217
   790   2    220    221    222    226
   791   2    217    222    221    225
   792   7    225    221    222    226
   793   1    232    227    228    229
   794   8    232    227    228    233
   795   2    229    228    227    265
   796   9    265    227    228    233
   797   1    228    227    232    231
   798   2    228    227    232    268
   799   2    231    232    227    265
   800   7    265    227    232    268
   801   1    227    228    229    230
   802   2    227    228    229    266
   803   8    230    229    228    233
   804   9    266    229    228    233
   805  10    227    228    233    220
   806  10    227    228    233    234
   807  10    227    228    233    245
   808  10    229    228    233    220
   809  10    229    228    233    234
   810  10    229    228    233    245
   811   1    228    229    230    231
   812   2    228    229    230    267
   813   2    231    230    229    266
   814   7    266    229    230    267
   815   1    229    230    231    232
   816   3    229    230    231    644
   817   2    232    231    230    267
   818   4    267    230    231    644
   819   1    230    231    232    227
   820   2    230    231    232    268
   821   3    227    232    231    644
   822   4    268    232    231    644
   823   5    230    231    644    643
   824   6    230    231    644    647
   825   6    230    231    644    648
   826   5    232    231    644    643
   827   6    232    231    644    647
   828   6    232    231    644    648
   829  10    235    234    233    228
   830  10    239    234    233    228
   831  10    235    234    233    220
   832  10    239    234    233    220
   833  10    235    234    233    245
   834  10    239    234    233    245
   835  10    240    245    233    228
   836  10    244    245    233    228
   837  10    240    245    233    220
   838  10    244    245    233    220
   839  10    240    245    233    234
   840  10    244    245    233    234
   841   8    236    235    234    233
   842   9    269    235    234    233
   843   1    239    234    235    236
   844   2    239    234    235    269
   845   8    238    239    234    233
   846   9    272    239    234    233
   847   1    235    234    239    238
   848   2    235    234    239    272
   849   1    234    235    236    237
   850   2    234    235    236    270
   851   2    237    236    235    269
   852   7    269    235    236    270
   853   1    235    236    237    238
   854   3    235    236    237    674
   855   2    238    237    236    270
   856   4    270    236    237    674
   857   1    236    237    238    239
   858   2    236    237    238    271
   859   3    239    238    237    674
   860   4    271    238    237    674
   861   5    236    237    674    673
   862   6    236    237    674    677
   863   6    236    237    674    678
   864   5    238    237    674    673
   865   6    238    237    674    677
   866   6    238    237    674    678
   867   1    237    238    239    234
   868   2    237    238    239    272
   869   2    234    239    238    271
   870   7    271    238    239    272
   871   1    245    240    241    242
   872   2    245    240    241    274
   873   2    242    241    240    273
   874   7    273    240    241    274
   875   8    241    240    245    233
   876   1    241    240    245    244
   877   9    273    240    245    233
   878   2    244    245    240    273
   879   1    240    241    242    243
   880   8    240    241    242    246
   881   2    243    242    241    274
   882   9    274    241    242    246
   883   1    241    242    243    244
   884   2    241    242    243    275
   885   8    244    243    242    246
   886   9    275    243    242    246
   887  10    241    242    246    250
   888  10    241    242    246    253
   889  10    241    242    246    264
   890  10    243    242    246    250
   891  10    243    242    246    253
   892  10    243    242    246    264
   893   1    242    243    244    245
   894   2    242    243    244    276
   895   2    245    244    243    275
   896   7    275    243    244    276
   897   8    243    244    245    233
   898   1    243    244    245    240
   899   9    276    244    245    233
   900   2    240    245    244    276
   901  10    249    250    246    242
   902  10    251    250    246    242
   903  10    249    250    246    253
   904  10    251    250    246    253
   905  10    249    250    246    264
   906  10    251    250    246    264
   907  10    254    253    246    242
   908  10    258    253    246    242
   909  10    254    253    246    250
   910  10    258    253    246    250
   911  10    254    253    246    264
   912  10    258    253    246    264
   913  10    259    264    246    242
   914  10    263    264    246    242
   915  10    259    264    246    250
   916  10    263    264    246    250
   917  10    259    264    246    253
   918  10    263    264    246    253
   919   1    252    247    248    249
   920   2    252    247    248    277
   921   3    249    248    247    703
   922   4    277    248    247    703
   923   1    248    247    252    251
   924   2    248    247    252    280
   925   3    251    252    247    703
   926   4    280    252    247    703
   927   5    248    247    703    704
   928   6    248    247    703    705
   929   6    248    247    703    706
   930   5    252    247    703    704
   931   6    252    247    703    705
   932   6    252    247    703    706
   933   1    247    248    249    250
   934   2    247    248    249    278
   935   2    250    249    248    277
   936   7    277    248    249    278
   937   8    248    249    250    246
   938   1    248    249    250    251
   939   9    278    249    250    246
   940   2    251    250    249    278
   941   1    249    250    251    252
   942   2    249    250    251    279
   943   8    252    251    250    246
   944   9    279    251    250    246
   945   1    250    251    252    247
   946   2    250    251    252    280
   947   2    247    252    251    279
   948   7    279    251    252    280
   949   8    255    254    253    246
   950   9    281    254    253    246
   951   1    258    253    254    255
   952   2    258    253    254    281
   953   8    257    258    253    246
   954   9    284    258    253    246
   955   1    254    253    258    257
   956   2    254    253    258    284
   957   1    253    254    255    256
   958   2    253    254    255    282
   959   2    256    255    254    281
   960   7    281    254    255    282
   961   1    254    255    256    257
   962   3    254    255    256    649
   963   2    257    256    255    282
   964   4    282    255    256    649
   965   1    255    256    257    258
   966   2    255    256    257    283
   967   3    258    257    256    649
   968   4    283    257    256    649
   969   5    255    256    649    650
   970   6    255    256    649    651
   971   6    255    256    649    652
   972   5    257    256    649    650
   973   6    257    256    649    651
   974   6    257    256    649    652
   975   1    256    257    258    253
   976   2    256    257    258    284
   977   2    253    258    257    283
   978   7    283    257    258    284
   979   1    264    259    260    261
   980   2    264    259    260    286
   981   2    261    260    259    285
   982   7    285    259    260    286
   983   8    260    259    264    246
   984   1    260    259    264    263
   985   9    285    259    264    246
   986   2    263    264    259    285
   987   1    259    260    261    262
   988   3    259    260    261    679
   989   2    262    261    260    286
   990   4    286    260    261    679
   991   1    260    261    262    263
   992   2    260    261    262    287
   993   3    263    262    261    679
   994   4    287    262    261    679
   995   5    260    261    679    680
   996   6    260    261    679    681
   997   6    260    261    679    682
   998   5    262    261    679    680
   999   6    262    261    679    681
  1000   6    262    261    679    682
  1001   1    261    262    263    264
  1002   2    261    262    263    288
  1003   2    264    263    262    287
  1004   7    287    262    263    288
  1005   1    262    263    264    259
  1006   8    262    263    264    246
  1007   2    259    264    263    288
  1008   9    288    263    264    246
  1009   1    294    289    290    291
  1010   2    294    289    290    295
  1011   3    291    290    289    602
  1012   4    295    290    289    602
  1013   1    290    289    294    293
  1014   2    290    289    294    298
  1015   3    293    294    289    602
  1016   4    298    294    289    602
  1017   5    290    289    602    601
  1018   6    290    289    602    605
  1019   6    290    289    602    606
  1020   5    294    289    602    601
  1021   6    294    289    602    605
  1022   6    294    289    602    606
  1023   1    289    290    291    292
  1024   2    289    290    291    296
  1025   2    292    291    290    295
  1026   7    295    290    291    296
  1027   1    290    291    292    293
  1028   8    290    291    292    305
  1029   2    293    292    291    296
  1030   9    296    291    292    305
  1031   1    291    292    293    294
  1032   2    291    292    293    297
  1033   8    294    293    292    305
  1034   9    297    293    292    305
  1035  10    291    292    305    300
  1036  10    291    292    305    306
  1037  10    291    292    305    317
  1038  10    293    292    305    300
  1039  10    293    292    305    306
  1040  10    293    292    305    317
  1041   1    292    293    294    289
  1042   2    292    293    294    298
  1043   2    289    294    293    297
  1044   7    297    293    294    298
  1045   1    304    299    300    301
  1046   8    304    299    300    305
  1047   2    301    300    299    337
  1048   9    337    299    300    305
  1049   1    300    299    304    303
  1050   2    300    299    304    340
  1051   2    303    304    299    337
  1052   7    337    299    304    340
  1053   1    299    300    301    302
  1054   2    299    300    301    338
  1055   8    302    301    300    305
  1056   9    338    301    300    305
  1057  10    299    300    305    292
  1058  10    299    300    305    306
  1059  10    299    300    305    317
  1060  10    301    300    305    292
  1061  10    301    300    305    306
  1062  10    301    300    305    317
  1063   1    300    301    302    303
  1064   2    300    301    302    339
  1065   2    303    302    301    338
  1066   7    338    301    302    339
  1067   1    301    302    303    304
  1068   3    301    302    303    626
  1069   2    304    303    302    339
  1070   4    339    302    303    626
  1071   1    302    303    304    299
  1072   2    302    303    304    340
  1073   3    299    304    303    626
  1074   4    340    304    303    626
  1075   5    302    303    626    625
  1076   6    302    303    626    629
  1077   6    302    303    626    630
  1078   5    304    303    626    625
  1079   6    304    303    626    629
  1080   6    304    303    626    630
  1081  10    307    306    305    292
  1082  10    311    306    305    292
  1083  10    307    306    305    300
  1084  10    311    306    305    300
  1085  10    307    306    305    317
  1086  10    311    306    305    317
  1087  10    312    317    305    292
  1088  10    316    317    305    292
  1089  10    312    317    305    300
  1090  10    316    317    305    300
  1091  10    312    317    305    306
  1092  10    316    317    305    306
  1093   8    308    307    306    305
  1094   9    341    307    306    305
  1095   1    311    306    307    308
  1096   2    311    306    307    341
  1097   8    310    311    306    305
  1098   9    344    311    306    305
  1099   1    307    306    311    310
  1100   2    307    306    311    344
  1101   1    306    307    308    309
  1102   2    306    307    308    342
  1103   2    309    308    307    341
  1104   7    341    307    308    342
  1105   1    307    308    309    310
  1106   3    307    308    309    608
  1107   2    310    309    308    342
  1108   4    342    308    309    608
  1109   1    308    309    310    311
  1110   2    308    309    310    343
  1111   3    311    310    309    608
  1112   4    343    310    309    608
  1113   5    308    309    608    607
  1114   6    308    309    608    611
  1115   6    308    309    608    612
  1116   5    310    309    608    607
  1117   6    310    309    608    611
  1118   6    310    309    608    612
  1119   1    309    310    311    306
  1120   2    309    310    311    344
  1121   2    306    311    310    343
  1122   7    343    310    311    344
  1123   1    317    312    313    314
  1124   2    317    312    313    346
  1125   2    314    313    312    345
  1126   7    345    312    313    346
  1127   1    313    312    317    316
  1128   8    313    312    317    305
  1129   2    316    317    312    345
  1130   9    345    312    317    305
  1131   1    312    313    314    315
  1132   8    312    313    314    318
  1133   2    315    314    313    346
  1134   9    346    313    314    318
  1135   1    313    314    315    316
  1136   2    313    314    315    347
  1137   8    316    315    314    318
  1138   9    347    315    314    318
  1139  10    313    314    318    322
  1140  10    313    314    318    325
  1141  10    313    314    318    336
  1142  10    315    314    318    322
  1143  10    315    314    318    325
  1144  10    315    314    318    336
  1145   1    314    315    316    317
  1146   2    314    315    316    348
  1147   2    317    316    315    347
  1148   7    347    315    316    348
  1149   1    315    316    317    312
  1150   8    315    316    317    305
  1151   2    312    317    316    348
  1152   9    348    316    317    305
  1153  10    321    322    318    314
  1154  10    323    322    318    314
  1155  10    321    322    318    325
  1156  10    323    322    318    325
  1157  10    321    322    318    336
  1158  10    323    322    318    336
  1159  10    326    325    318    314
  1160  10    330    325    318    314
  1161  10    326    325    318    322
  1162  10    330    325    318    322
  1163  10    326    325    318    336
  1164  10    330    325    318    336
  1165  10    331    336    318    314
  1166  10    335    336    318    314
  1167  10    331    336    318    322
  1168  10    335    336    318    322
  1169  10    331    336    318    325
  1170  10    335    336    318    325
  1171   1    324    319    320    321
  1172   2    324    319    320    349
  1173   3    321    320    319    698
  1174   4    349    320    319    698
  1175   1    320    319    324    323
  1176   2    320    319    324    352
  1177   3    323    324    319    698
  1178   4    352    324    319    698
  1179   5    320    319    698    697
  1180   6    320    319    698    701
  1181   6    320    319    698    702
  1182   5    324    319    698    697
  1183   6    324    319    698    701
  1184   6    324    319    698    702
  1185   1    319    320    321    322
  1186   2    319    320    321    350
  1187   2    322    321    320    349
  1188   7    349    320    321    350
  1189   8    320    321    322    318
  1190   1    320    321    322    323
  1191   9    350    321    322    318
  1192   2    323    322    321    350
  1193   1    321    322    323    324
  1194   2    321    322    323    351
  1195   8    324    323    322    318
  1196   9    351    323    322    318
  1197   1    322    323    324    319
  1198   2    322    323    324    352
  1199   2    319    324    323    351
  1200   7    351    323    324    352
  1201   8    327    326    325    318
  1202   9    353    326    325    318
  1203   1    330    325    326    327
  1204   2    330    325    326    353
  1205   8    329    330    325    318
  1206   9    356    330    325    318
  1207   1    326    325    330    329
  1208   2    326    325    330    356
  1209   1    325    326    327    328
  1210   2    325    326    327    354
  1211   2    328    327    326    353
  1212   7    353    326    327    354
  1213   1    326    327    328    329
  1214   3    326    327    328    619
  1215   2    329    328    327    354
  1216   4    354    327    328    619
  1217   1    327    328    329    330
  1218   2    327    328    329    355
  1219   3    330    329    328    619
  1220   4    355    329    328    619
  1221   5    327    328    619    620
  1222   6    327    328    619    621
  1223   6    327    328    619    622
  1224   5    329    328    619    620
  1225   6    329    328    619    621
  1226   6    329    328    619    622
  1227   1    328    329    330    325
  1228   2    328    329    330    356
  1229   2    325    330    329    355
  1230   7    355    329    330    356
  1231   1    336    331    332    333
  1232   2    336    331    332    358
  1233   2    333    332    331    357
  1234   7    357    331    332    358
  1235   8    332    331    336    318
  1236   1    332    331    336    335
  1237   9    357    331    336    318
  1238   2    335    336    331    357
  1239   1    331    332    333    334
  1240   3    331    332    333    613
  1241   2    334    333    332    358
  1242   4    358    332    333    613
  1243   1    332    333    334    335
  1244   2    332    333    334    359
  1245   3    335    334    333    613
  1246   4    359    334    333    613
  1247   5    332    333    613    614
  1248   6    332    333    613    615
  1249   6    332    333    613    616
  1250   5    334    333    613    614
  1251   6    334    333    613    615
  1252   6    334    333    613    616
  1253   1    333    334    335    336
  1254   2    333    334    335    360
  1255   2    336    335    334    359
  1256   7    359    334    335    360
  1257   8    334    335    336    318
  1258   1    334    335    336    331
  1259   9    360    335    336    318
  1260   2    331    336    335    360
  1261   1    366    361    362    363
  1262   2    366    361    362    367
  1263   3    363    362    361    584
  1264   4    367    362    361    584
  1265   1    362    361    366    365
  1266   2    362    361    366    370
  1267   3    365    366    361    584
  1268   4    370    366    361    584
  1269   5    362    361    584    583
  1270   6    362    361    584    587
  1271   6    362    361    584    588
  1272   5    366    361    584    583
  1273   6    366    361    584    587
  1274   6    366    361    584    588
  1275   1    361    362    363    364
  1276   2    361    362    363    368
  1277   2    364    363    362    367
  1278   7    367    362    363    368
  1279   1    362    363    364    365
  1280   8    362    363    364    377
  1281   2    365    364    363    368
  1282   9    368    363    364    377
  1283   1    363    364    365    366
  1284   2    363    364    365    369
  1285   8    366    365    364    377
  1286   9    369    365    364    377
  1287  10    363    364    377    372
  1288  10    363    364    377    378
  1289  10    363    364    377    389
  1290  10    365    364    377    372
  1291  10    365    364    377    378
  1292  10    365    364    377    389
  1293   1    364    365    366    361
  1294   2    364    365    366    370
  1295   2    361    366    365    369
  1296   7    369    365    366    370
  1297   1    376    371    372    373
  1298   8    376    371    372    377
  1299   2    373    372    371    409
  1300   9    409    371    372    377
  1301   1    372    371    376    375
  1302   2    372    371    376    412
  1303   2    375    376    371    409
  1304   7    409    371    376    412
  1305   1    371    372    373    374
  1306   2    371    372    373    410
  1307   8    374    373    372    377
  1308   9    410    373    372    377
  1309  10    371    372    377    364
  1310  10    371    372    377    378
  1311  10    371    372    377    389
  1312  10    373    372    377    364
  1313  10    373    372    377    378
  1314  10    373    372    377    389
  1315   1    372    373    374    375
  1316   2    372    373    374    411
  1317   2    375    374    373    410
  1318   7    410    373    374    411
  1319   1    373    374    375    376
  1320   3    373    374    375    595
  1321   2    376    375    374    411
  1322   4    411    374    375    595
  1323   1    374    375    376    371
  1324   2    374    375    376    412
  1325   3    371    376    375    595
  1326   4    412    376    375    595
  1327   5    374    375    595    596
  1328   6    374    375    595    597
  1329   6    374    375    595    598
  1330   5    376    375    595    596
  1331   6    376    375    595    597
  1332   6    376    375    595    598
  1333  10    379    378    377    372
  1334  10    383    378    377    372
  1335  10    379    378    377    364
  1336  10    383    378    377    364
  1337  10    379    378    377    389
  1338  10    383    378    377    389
  1339  10    384    389    377    372
  1340  10    388    389    377    372
  1341  10    384    389    377    364
  1342  10    388    389    377    364
  1343  10    384    389    377    378
  1344  10    388    389    377    378
  1345   8    380    379    378    377
  1346   9    413    379    378    377
  1347   1    383    378    379    380
  1348   2    383    378    379    413
  1349   8    382    383    378    377
  1350   9    416    383    378    377
  1351   1    379    378    383    382
  1352   2    379    378    383    416
  1353   1    378    379    380    381
  1354   2    378    379    380    414
  1355   2    381    380    379    413
  1356   7    413    379    380    414
  1357   1    379    380    381    382
  1358   3    379    380    381    620
  1359   2    382    381    380    414
  1360   4    414    380    381    620
  1361   1    380    381    382    383
  1362   2    380    381    382    415
  1363   3    383    382    381    620
  1364   4    415    382    381    620
  1365   5    380    381    620    619
  1366   6    380    381    620    623
  1367   6    380    381    620    624
  1368   5    382    381    620    619
  1369   6    382    381    620    623
  1370   6    382    381    620    624
  1371   1    381    382    383    378
  1372   2    381    382    383    416
  1373   2    378    383    382    415
  1374   7    415    382    383    416
  1375   1    389    384    385    386
  1376   2    389    384    385    418
  1377   2    386    385    384    417
  1378   7    417    384    385    418
  1379   8    385    384    389    377
  1380   1    385    384    389    388
  1381   9    417    384    389    377
  1382   2    388    389    384    417
  1383   1    384    385    386    387
  1384   8    384    385    386    390
  1385   2    387    386    385    418
  1386   9    418    385    386    390
  1387   1    385    386    387    388
  1388   2    385    386    387    419
  1389   8    388    387    386    390
  1390   9    419    387    386    390
  1391  10    385    386    390    394
  1392  10    385    386    390    397
  1393  10    385    386    390    408
  1394  10    387    386    390    394
  1395  10    387    386    390    397
  1396  10    387    386    390    408
  1397   1    386    387    388    389
  1398   2    386    387    388    420
  1399   2    389    388    387    419
  1400   7    419    387    388    420
  1401   1    387    388    389    384
  1402   8    387    388    389    377
  1403   2    384    389    388    420
  1404   9    420    388    389    377
  1405  10    393    394    390    386
  1406  10    395    394    390    386
  1407  10    393    394    390    397
  1408  10    395    394    390    397
  1409  10    393    394    390    408
  1410  10    395    394    390    408
  1411  10    398    397    390    386
  1412  10    402    397    390    386
  1413  10    398    397    390    394
  1414  10    402    397    390    394
  1415  10    398    397    390    408
  1416  10    402    397    390    408
  1417  10    403    408    390    386
  1418  10    407    408    390    386
  1419  10    403    408    390    394
  1420  10    407    408    390    394
  1421  10    403    408    390    397
  1422  10    407    408    390    397
  1423   1    396    391    392    393
  1424   2    396    391    392    421
  1425   3    393    392    391    686
  1426   4    421    392    391    686
  1427   1    392    391    396    395
  1428   2    392    391    396    424
  1429   3    395    396    391    686
  1430   4    424    396    391    686
  1431   5    392    391    686    685
  1432   6    392    391    686    689
  1433   6    392    391    686    690
  1434   5    396    391    686    685
  1435   6    396    391    686    689
  1436   6    396    391    686    690
  1437   1    391    392    393    394
  1438   2    391    392    393    422
  1439   2    394    393    392    421
  1440   7    421    392    393    422
  1441   8    392    393    394    390
  1442   1    392    393    394    395
  1443   9    422    393    394    390
  1444   2    395    394    393    422
  1445   8    396    395    394    390
  1446   9    423    395    394    390
  1447   1    393    394    395    396
  1448   2    393    394    395    423
  1449   1    394    395    396    391
  1450   2    394    395    396    424
  1451   2    391    396    395    423
  1452   7    423    395    396    424
  1453   8    399    398    397    390
  1454   9    425    398    397    390
  1455   1    402    397    398    399
  1456   2    402    397    398    425
  1457   8    401    402    397    390
  1458   9    428    402    397    390
  1459   1    398    397    402    401
  1460   2    398    397    402    428
  1461   1    397    398    399    400
  1462   2    397    398    399    426
  1463   2    400    399    398    425
  1464   7    425    398    399    426
  1465   1    398    399    400    401
  1466   3    398    399    400    589
  1467   2    401    400    399    426
  1468   4    426    399    400    589
  1469   1    399    400    401    402
  1470   2    399    400    401    427
  1471   3    402    401    400    589
  1472   4    427    401    400    589
  1473   5    399    400    589    590
  1474   6    399    400    589    591
  1475   6    399    400    589    592
  1476   5    401    400    589    590
  1477   6    401    400    589    591
  1478   6    401    400    589    592
  1479   1    400    401    402    397
  1480   2    400    401    402    428
  1481   2    397    402    401    427
  1482   7    427    401    402    428
  1483   1    408    403    404    405
  1484   2    408    403    404    430
  1485   2    405    404    403    429
  1486   7    429    403    404    430
  1487   1    404    403    408    407
  1488   8    404    403    408    390
  1489   2    407    408    403    429
  1490   9    429    403    408    390
  1491   1    403    404    405    406
  1492   3    403    404    405    625
  1493   2    406    405    404    430
  1494   4    430    404    405    625
  1495   1    404    405    406    407
  1496   2    404    405    406    431
  1497   3    407    406    405    625
  1498   4    431    406    405    625
  1499   5    404    405    625    626
  1500   6    404    405    625    627
  1501   6    404    405    625    628
  1502   5    406    405    625    626
  1503   6    406    405    625    627
  1504   6    406    405    625    628
  1505   1    405    406    407    408
  1506   2    405    406    407    432
  1507   2    408    407    406    431
  1508   7    431    406    407    432
  1509   1    406    407    408    403
  1510   8    406    407    408    390
  1511   2    403    408    407    432
  1512   9    432    407    408    390
  1513   1    438    433    434    435
  1514   2    438    433    434    439
  1515   3    435    434    433    692
  1516   4    439    434    433    692
  1517   1    434    433    438    437
  1518   2    434    433    438    442
  1519   3    437    438    433    692
  1520   4    442    438    433    692
  1521   5    434    433    692    691
  1522   6    434    433    692    695
  1523   6    434    433    692    696
  1524   5    438    433    692    691
  1525   6    438    433    692    695
  1526   6    438    433    692    696
  1527   1    433    434    435    436
  1528   2    433    434    435    440
  1529   2    436    435    434    439
  1530   7    439    434    435    440
  1531   1    434    435    436    437
  1532   8    434    435    436    449
  1533   2    437    436    435    440
  1534   9    440    435    436    449
  1535   1    435    436    437    438
  1536   2    435    436    437    441
  1537   8    438    437    436    449
  1538   9    441    437    436    449
  1539  10    435    436    449    444
  1540  10    435    436    449    450
  1541  10    435    436    449    461
  1542  10    437    436    449    444
  1543  10    437    436    449    450
  1544  10    437    436    449    461
  1545   1    436    437    438    433
  1546   2    436    437    438    442
  1547   2    433    438    437    441
  1548   7    441    437    438    442
  1549   1    448    443    444    445
  1550   8    448    443    444    449
  1551   2    445    444    443    481
  1552   9    481    443    444    449
  1553   1    444    443    448    447
  1554   2    444    443    448    484
  1555   2    447    448    443    481
  1556   7    481    443    448    484
  1557   1    443    444    445    446
  1558   2    443    444    445    482
  1559   8    446    445    444    449
  1560   9    482    445    444    449
  1561  10    443    444    449    436
  1562  10    443    444    449    450
  1563  10    443    444    449    461
  1564  10    445    444    449    436
  1565  10    445    444    449    450
  1566  10    445    444    449    461
  1567   1    444    445    446    447
  1568   2    444    445    446    483
  1569   2    447    446    445    482
  1570   7    482    445    446    483
  1571   1    445    446    447    448
  1572   3    445    446    447    590
  1573   2    448    447    446    483
  1574   4    483    446    447    590
  1575   1    446    447    448    443
  1576   2    446    447    448    484
  1577   3    443    448    447    590
  1578   4    484    448    447    590
  1579   5    446    447    590    589
  1580   6    446    447    590    593
  1581   6    446    447    590    594
  1582   5    448    447    590    589
  1583   6    448    447    590    593
  1584   6    448    447    590    594
  1585  10    451    450    449    444
  1586  10    455    450    449    444
  1587  10    451    450    449    436
  1588  10    455    450    449    436
  1589  10    451    450    449    461
  1590  10    455    450    449    461
  1591  10    456    461    449    444
  1592  10    460    461    449    444
  1593  10    456    461    449    436
  1594  10    460    461    449    436
  1595  10    456    461    449    450
  1596  10    460    461    449    450
  1597   8    452    451    450    449
  1598   9    485    451    450    449
  1599   1    455    450    451    452
  1600   2    455    450    451    485
  1601   8    454    455    450    449
  1602   9    488    455    450    449
  1603   1    451    450    455    454
  1604   2    451    450    455    488
  1605   1    450    451    452    453
  1606   2    450    451    452    486
  1607   2    453    452    451    485
  1608   7    485    451    452    486
  1609   1    451    452    453    454
  1610   3    451    452    453    607
  1611   2    454    453    452    486
  1612   4    486    452    453    607
  1613   1    452    453    454    455
  1614   2    452    453    454    487
  1615   3    455    454    453    607
  1616   4    487    454    453    607
  1617   5    452    453    607    608
  1618   6    452    453    607    609
  1619   6    452    453    607    610
  1620   5    454    453    607    608
  1621   6    454    453    607    609
  1622   6    454    453    607    610
  1623   1    453    454    455    450
  1624   2    453    454    455    488
  1625   2    450    455    454    487
  1626   7    487    454    455    488
  1627   1    461    456    457    458
  1628   2    461    456    457    490
  1629   2    458    457    456    489
  1630   7    489    456    457    490
  1631   1    457    456    461    460
  1632   8    457    456    461    449
  1633   2    460    461    456    489
  1634   9    489    456    461    449
  1635   1    456    457    458    459
  1636   8    456    457    458    462
  1637   2    459    458    457    490
  1638   9    490    457    458    462
  1639   1    457    458    459    460
  1640   2    457    458    459    491
  1641   8    460    459    458    462
  1642   9    491    459    458    462
  1643  10    457    458    462    466
  1644  10    457    458    462    469
  1645  10    457    458    462    480
  1646  10    459    458    462    466
  1647  10    459    458    462    469
  1648  10    459    458    462    480
  1649   1    458    459    460    461
  1650   2    458    459    460    492
  1651   2    461    460    459    491
  1652   7    491    459    460    492
  1653   1    459    460    461    456
  1654   8    459    460    461    449
  1655   2    456    461    460    492
  1656   9    492    460    461    449
  1657  10    465    466    462    458
  1658  10    467    466    462    458
  1659  10    465    466    462    469
  1660  10    467    466    462    469
  1661  10    465    466    462    480
  1662  10    467    466    462    480
  1663  10    470    469    462    458
  1664  10    474    469    462    458
  1665  10    470    469    462    466
  1666  10    474    469    462    466
  1667  10    470    469    462    480
  1668  10    474    469    462    480
  1669  10    479    480    462    458
  1670  10    475    480    462    458
  1671  10    479    480    462    466
  1672  10    475    480    462    466
  1673  10    479    480    462    469
  1674  10    475    480    462    469
  1675   1    468    463    464    465
  1676   2    468    463    464    493
  1677   3    465    464    463    578
  1678   4    493    464    463    578
  1679   1    464    463    468    467
  1680   2    464    463    468    496
  1681   3    467    468    463    578
  1682   4    496    468    463    578
  1683   5    464    463    578    577
  1684   6    464    463    578    581
  1685   6    464    463    578    582
  1686   5    468    463    578    577
  1687   6    468    463    578    581
  1688   6    468    463    578    582
  1689   1    463    464    465    466
  1690   2    463    464    465    494
  1691   2    466    465    464    493
  1692   7    493    464    465    494
  1693   8    464    465    466    462
  1694   1    464    465    466    467
  1695   9    494    465    466    462
  1696   2    467    466    465    494
  1697   1    465    466    467    468
  1698   2    465    466    467    495
  1699   8    468    467    466    462
  1700   9    495    467    466    462
  1701   1    466    467    468    463
  1702   2    466    467    468    496
  1703   2    463    468    467    495
  1704   7    495    467    468    496
  1705   8    471    470    469    462
  1706   9    497    470    469    462
  1707   1    474    469    470    471
  1708   2    474    469    470    497
  1709   8    473    474    469    462
  1710   9    500    474    469    462
  1711   1    470    469    474    473
  1712   2    470    469    474    500
  1713   1    469    470    471    472
  1714   2    469    470    471    498
  1715   2    472    471    470    497
  1716   7    497    470    471    498
  1717   1    470    471    472    473
  1718   3    470    471    472    596
  1719   2    473    472    471    498
  1720   4    498    471    472    596
  1721   1    471    472    473    474
  1722   2    471    472    473    499
  1723   3    474    473    472    596
  1724   4    499    473    472    596
  1725   5    471    472    596    595
  1726   6    471    472    596    599
  1727   6    471    472    596    600
  1728   5    473    472    596    595
  1729   6    473    472    596    599
  1730   6    473    472    596    600
  1731   1    472    473    474    469
  1732   2    472    473    474    500
  1733   2    469    474    473    499
  1734   7    499    473    474    500
  1735   1    480    475    476    477
  1736   2    480    475    476    502
  1737   2    477    476    475    501
  1738   7    501    475    476    502
  1739   8    476    475    480    462
  1740   1    476    475    480    479
  1741   9    501    475    480    462
  1742   2    479    480    475    501
  1743   1    475    476    477    478
  1744   3    475    476    477    614
  1745   2    478    477    476    502
  1746   4    502    476    477    614
  1747   1    476    477    478    479
  1748   2    476    477    478    503
  1749   3    479    478    477    614
  1750   4    503    478    477    614
  1751   5    476    477    614    613
  1752   6    476    477    614    617
  1753   6    476    477    614    618
  1754   5    478    477    614    613
  1755   6    478    477    614    617
  1756   6    478    477    614    618
  1757   1    477    478    479    480
  1758   2    477    478    479    504
  1759   2    480    479    478    503
  1760   7    503    478    479    504
  1761   8    478    479    480    462
  1762   1    478    479    480    475
  1763   9    504    479    480    462
  1764   2    475    480    479    504
  1765   1    510    505    506    507
  1766   2    510    505    506    511
  1767   3    507    506    505    577
  1768   4    511    506    505    577
  1769   1    506    505    510    509
  1770   2    506    505    510    514
  1771   3    509    510    505    577
  1772   4    514    510    505    577
  1773   5    506    505    577    578
  1774   6    506    505    577    579
  1775   6    506    505    577    580
  1776   5    510    505    577    578
  1777   6    510    505    577    579
  1778   6    510    505    577    580
  1779   1    505    506    507    508
  1780   2    505    506    507    512
  1781   2    508    507    506    511
  1782   7    511    506    507    512
  1783   1    506    507    508    509
  1784   8    506    507    508    521
  1785   2    509    508    507    512
  1786   9    512    507    508    521
  1787   1    507    508    509    510
  1788   2    507    508    509    513
  1789   8    510    509    508    521
  1790   9    513    509    508    521
  1791  10    507    508    521    516
  1792  10    507    508    521    522
  1793  10    507    508    521    533
  1794  10    509    508    521    516
  1795  10    509    508    521    522
  1796  10    509    508    521    533
  1797   1    508    509    510    505
  1798   2    508    509    510    514
  1799   2    505    510    509    513
  1800   7    513    509    510    514
  1801   1    520    515    516    517
  1802   8    520    515    516    521
  1803   2    517    516    515    553
  1804   9    553    515    516    521
  1805   1    516    515    520    519
  1806   2    516    515    520    556
  1807   2    519    520    515    553
  1808   7    553    515    520    556
  1809   1    515    516    517    518
  1810   2    515    516    517    554
  1811   8    518    517    516    521
  1812   9    554    517    516    521
  1813  10    515    516    521    508
  1814  10    515    516    521    522
  1815  10    515    516    521    533
  1816  10    517    516    521    508
  1817  10    517    516    521    522
  1818  10    517    516    521    533
  1819   1    516    517    518    519
  1820   2    516    517    518    555
  1821   2    519    518    517    554
  1822   7    554    517    518    555
  1823   1    517    518    519    520
  1824   3    517    518    519    583
  1825   2    520    519    518    555
  1826   4    555    518    519    583
  1827   1    518    519    520    515
  1828   2    518    519    520    556
  1829   3    515    520    519    583
  1830   4    556    520    519    583
  1831   5    518    519    583    584
  1832   6    518    519    583    585
  1833   6    518    519    583    586
  1834   5    520    519    583    584
  1835   6    520    519    583    585
  1836   6    520    519    583    586
  1837  10    523    522    521    508
  1838  10    527    522    521    508
  1839  10    523    522    521    516
  1840  10    527    522    521    516
  1841  10    523    522    521    533
  1842  10    527    522    521    533
  1843  10    528    533    521    508
  1844  10    532    533    521    508
  1845  10    528    533    521    516
  1846  10    532    533    521    516
  1847  10    528    533    521    522
  1848  10    532    533    521    522
  1849   8    524    523    522    521
  1850   9    557    523    522    521
  1851   1    527    522    523    524
  1852   2    527    522    523    557
  1853   8    526    527    522    521
  1854   9    560    527    522    521
  1855   1    523    522    527    526
  1856   2    523    522    527    560
  1857   1    522    523    524    525
  1858   2    522    523    524    558
  1859   2    525    524    523    557
  1860   7    557    523    524    558
  1861   1    523    524    525    526
  1862   3    523    524    525    601
  1863   2    526    525    524    558
  1864   4    558    524    525    601
  1865   1    524    525    526    527
  1866   2    524    525    526    559
  1867   3    527    526    525    601
  1868   4    559    526    525    601
  1869   5    524    525    601    602
  1870   6    524    525    601    603
  1871   6    524    525    601    604
  1872   5    526    525    601    602
  1873   6    526    525    601    603
  1874   6    526    525    601    604
  1875   1    525    526    527    522
  1876   2    525    526    527    560
  1877   2    522    527    526    559
  1878   7    559    526    527    560
  1879   1    533    528    529    530
  1880   2    533    528    529    562
  1881   2    530    529    528    561
  1882   7    561    528    529    562
  1883   8    529    528    533    521
  1884   1    529    528    533    532
  1885   9    561    528    533    521
  1886   2    532    533    528    561
  1887   1    528    529    530    531
  1888   8    528    529    530    534
  1889   2    531    530    529    562
  1890   9    562    529    530    534
  1891   1    529    530    531    532
  1892   2    529    530    531    563
  1893   8    532    531    530    534
  1894   9    563    531    530    534
  1895  10    529    530    534    538
  1896  10    529    530    534    541
  1897  10    529    530    534    552
  1898  10    531    530    534    538
  1899  10    531    530    534    541
  1900  10    531    530    534    552
  1901   1    530    531    532    533
  1902   2    530    531    532    564
  1903   2    533    532    531    563
  1904   7    563    531    532    564
  1905   8    531    532    533    521
  1906   1    531    532    533    528
  1907   9    564    532    533    521
  1908   2    528    533    532    564
  1909  10    537    538    534    530
  1910  10    539    538    534    530
  1911  10    537    538    534    541
  1912  10    539    538    534    541
  1913  10    537    538    534    552
  1914  10    539    538    534    552
  1915  10    542    541    534    530
  1916  10    546    541    534    530
  1917  10    542    541    534    538
  1918  10    546    541    534    538
  1919  10    542    541    534    552
  1920  10    546    541    534    552
  1921  10    547    552    534    530
  1922  10    551    552    534    530
  1923  10    547    552    534    538
  1924  10    551    552    534    538
  1925  10    547    552    534    541
  1926  10    551    552    534    541
  1927   1    540    535    536    537
  1928   2    540    535    536    565
  1929   3    537    536    535    637
  1930   4    565    536    535    637
  1931   1    536    535    540    539
  1932   2    536    535    540    568
  1933   3    539    540    535    637
  1934   4    568    540    535    637
  1935   5    536    535    637    638
  1936   6    536    535    637    639
  1937   6    536    535    637    640
  1938   5    540    535    637    638
  1939   6    540    535    637    639
  1940   6    540    535    637    640
  1941   1    535    536    537    538
  1942   2    535    536    537    566
  1943   2    538    537    536    565
  1944   7    565    536    537    566
  1945   8    536    537    538    534
  1946   1    536    537    538    539
  1947   9    566    537    538    534
  1948   2    539    538    537    566
  1949   1    537    538    539    540
  1950   2    537    538    539    567
  1951   8    540    539    538    534
  1952   9    567    539    538    534
  1953   1    538    539    540    535
  1954   2    538    539    540    568
  1955   2    535    540    539    567
  1956   7    567    539    540    568
  1957   8    543    542    541    534
  1958   9    569    542    541    534
  1959   1    546    541    542    543
  1960   2    546    541    542    569
  1961   8    545    546    541    534
  1962   9    572    546    541    534
  1963   1    542    541    546    545
  1964   2    542    541    546    572
  1965   1    541    542    543    544
  1966   2    541    542    543    570
  1967   2    544    543    542    569
  1968   7    569    542    543    570
  1969   1    542    543    544    545
  1970   3    542    543    544    655
  1971   2    545    544    543    570
  1972   4    570    543    544    655
  1973   1    543    544    545    546
  1974   2    543    544    545    571
  1975   3    546    545    544    655
  1976   4    571    545    544    655
  1977   5    543    544    655    656
  1978   6    543    544    655    657
  1979   6    543    544    655    658
  1980   5    545    544    655    656
  1981   6    545    544    655    657
  1982   6    545    544    655    658
  1983   1    544    545    546    541
  1984   2    544    545    546    572
  1985   2    541    546    545    571
  1986   7    571    545    546    572
  1987   1    552    547    548    549
  1988   2    552    547    548    574
  1989   2    549    548    547    573
  1990   7    573    547    548    574
  1991   1    548    547    552    551
  1992   8    548    547    552    534
  1993   2    551    552    547    573
  1994   9    573    547    552    534
  1995   1    547    548    549    550
  1996   3    547    548    549    631
  1997   2    550    549    548    574
  1998   4    574    548    549    631
  1999   1    548    549    550    551
  2000   2    548    549    550    575
  2001   3    551    550    549    631
  2002   4    575    550    549    631
  2003   5    548    549    631    632
  2004   6    548    549    631    633
  2005   6    548    549    631    634
  2006   5    550    549    631    632
  2007   6    550    549    631    633
  2008   6    550    549    631    634
  2009   1    549    550    551    552
  2010   2    549    550    551    576
  2011   2    552    551    550    575
  2012   7    575    550    551    576
  2013   1    550    551    552    547
  2014   8    550    551    552    534
  2015   2    547    552    551    576
  2016   9    576    551    552    534
  2017  11    505    577    578    463
  2018  12    505    577    578    581
  2019  12    505    577    578    582
  2020  12    463    578    577    579
  2021  13    579    577    578    581
  2022  13    579    577    578    582
  2023  12    463    578    577    580
  2024  13    580    577    578    581
  2025  13    580    577    578    582
  2026  11    519    583    584    361
  2027  12    519    583    584    587
  2028  12    519    583    584    588
  2029  12    361    584    583    585
  2030  13    585    583    584    587
  2031  13    585    583    584    588
  2032  12    361    584    583    586
  2033  13    586    583    584    587
  2034  13    586    583    584    588
  2035  11    400    589    590    447
  2036  12    400    589    590    593
  2037  12    400    589    590    594
  2038  12    447    590    589    591
  2039  13    591    589    590    593
  2040  13    591    589    590    594
  2041  12    447    590    589    592
  2042  13    592    589    590    593
  2043  13    592    589    590    594
  2044  11    375    595    596    472
  2045  12    375    595    596    599
  2046  12    375    595    596    600
  2047  12    472    596    595    597
  2048  13    597    595    596    599
  2049  13    597    595    596    600
  2050  12    472    596    595    598
  2051  13    598    595    596    599
  2052  13    598    595    596    600
  2053  11    525    601    602    289
  2054  12    525    601    602    605
  2055  12    525    601    602    606
  2056  12    289    602    601    603
  2057  13    603    601    602    605
  2058  13    603    601    602    606
  2059  12    289    602    601    604
  2060  13    604    601    602    605
  2061  13    604    601    602    606
  2062  11    453    607    608    309
  2063  12    453    607    608    611
  2064  12    453    607    608    612
  2065  12    309    608    607    609
  2066  13    609    607    608    611
  2067  13    609    607    608    612
  2068  12    309    608    607    610
  2069  13    610    607    608    611
  2070  13    610    607    608    612
  2071  11    333    613    614    477
  2072  12    333    613    614    617
  2073  12    333    613    614    618
  2074  12    477    614    613    615
  2075  13    615    613    614    617
  2076  13    615    613    614    618
  2077  12    477    614    613    616
  2078  13    616    613    614    617
  2079  13    616    613    614    618
  2080  11    328    619    620    381
  2081  12    328    619    620    623
  2082  12    328    619    620    624
  2083  12    381    620    619    621
  2084  13    621    619    620    623
  2085  13    621    619    620    624
  2086  12    381    620    619    622
  2087  13    622    619    620    623
  2088  13    622    619    620    624
  2089  11    405    625    626    303
  2090  12    405    625    626    629
  2091  12    405    625    626    630
  2092  12    303    626    625    627
  2093  13    627    625    626    629
  2094  13    627    625    626    630
  2095  12    303    626    625    628
  2096  13    628    625    626    629
  2097  13    628    625    626    630
  2098  11    549    631    632    217
  2099  12    549    631    632    635
  2100  12    549    631    632    636
  2101  12    217    632    631    633
  2102  13    633    631    632    635
  2103  13    633    631    632    636
  2104  12    217    632    631    634
  2105  13    634    631    632    635
  2106  13    634    631    632    636
  2107  11    535    637    638    175
  2108  12    535    637    638    641
  2109  12    535    637    638    642
  2110  12    175    638    637    639
  2111  13    639    637    638    641
  2112  13    639    637    638    642
  2113  12    175    638    637    640
  2114  13    640    637    638    641
  2115  13    640    637    638    642
  2116  11    184    643    644    231
  2117  12    184    643    644    647
  2118  12    184    643    644    648
  2119  12    231    644    643    645
  2120  13    645    643    644    647
  2121  13    645    643    644    648
  2122  12    231    644    643    646
  2123  13    646    643    644    647
  2124  13    646    643    644    648
  2125  11    256    649    650    159
  2126  12    256    649    650    653
  2127  12    256    649    650    654
  2128  12    159    650    649    651
  2129  13    651    649    650    653
  2130  13    651    649    650    654
  2131  12    159    650    649    652
  2132  13    652    649    650    653
  2133  13    652    649    650    654
  2134  11    544    655    656     73
  2135  12    544    655    656    659
  2136  12    544    655    656    660
  2137  12     73    656    655    657
  2138  13    657    655    656    659
  2139  13    657    655    656    660
  2140  12     73    656    655    658
  2141  13    658    655    656    659
  2142  13    658    655    656    660
  2143  11    117    661    662    189
  2144  12    117    661    662    665
  2145  12    117    661    662    666
  2146  12    189    662    661    663
  2147  13    663    661    662    665
  2148  13    663    661    662    666
  2149  12    189    662    661    664
  2150  13    664    661    662    665
  2151  13    664    661    662    666
  2152  11    165    667    668     93
  2153  12    165    667    668    671
  2154  12    165    667    668    672
  2155  12     93    668    667    669
  2156  13    669    667    668    671
  2157  13    669    667    668    672
  2158  12     93    668    667    670
  2159  13    670    667    668    671
  2160  13    670    667    668    672
  2161  11    112    673    674    237
  2162  12    112    673    674    677
  2163  12    112    673    674    678
  2164  12    237    674    673    675
  2165  13    675    673    674    677
  2166  13    675    673    674    678
  2167  12    237    674    673    676
  2168  13    676    673    674    677
  2169  13    676    673    674    678
  2170  11    261    679    680     87
  2171  12    261    679    680    683
  2172  12    261    679    680    684
  2173  12     87    680    679    681
  2174  13    681    679    680    683
  2175  13    681    679    680    684
  2176  12     87    680    679    682
  2177  13    682    679    680    683
  2178  13    682    679    680    684
  2179  11     31    685    686    391
  2180  12     31    685    686    689
  2181  12     31    685    686    690
  2182  12    391    686    685    687
  2183  13    687    685    686    689
  2184  13    687    685    686    690
  2185  12    391    686    685    688
  2186  13    688    685    686    689
  2187  13    688    685    686    690
  2188  11     45    691    692    433
  2189  12     45    691    692    695
  2190  12     45    691    692    696
  2191  12    433    692    691    693
  2192  13    693    691    692    695
  2193  13    693    691    692    696
  2194  12    433    692    691    694
  2195  13    694    691    692    695
  2196  13    694    691    692    696
  2197  11     40    697    698    319
  2198  12     40    697    698    701
  2199  12     40    697    698    702
  2200  12    319    698    697    699
  2201  13    699    697    698    701
  2202  13    699    697    698    702
  2203  12    319    698    697    700
  2204  13    700    697    698    701
  2205  13    700    697    698    702
  2206  11    247    703    704     15
  2207  12    247    703    704    707
  2208  12    247    703    704    708
  2209  12     15    704    703    705
  2210  13    705    703    704    707
  2211  13    705    703    704    708
  2212  12     15    704    703    706
  2213  13    706    703    704    707
  2214  13    706    703    704    708
  2215  11      1    709    710    103
  2216  12      1    709    710    713
  2217  12      1    709    710    714
  2218  12    103    710    709    711
  2219  13    711    709    710    713
  2220  13    711    709    710    714
  2221  12    103    710    709    712
  2222  13    712    709    710    713
  2223  13    712    709    710    714
  2224  11    145    715    716     21
  2225  12    145    715    716    719
  2226  12    145    715    716    720
  2227  12     21    716    715    717
  2228  13    717    715    716    719
  2229  13    717    715    716    720
  2230  12     21    716    715    718
  2231  13    718    715    716    719
  2232  13    718    715    716    720

Impropers

     1   1      2      1      6    709 
     2   2      1      2      3      7 
     3   2      2      3      4      8 
     4   3      3      4      5     17 
     5   2      4      5      6      9 
     6   2      1      6      5     10 
     7   2     12     11     16     49 
     8   3     11     12     13     17 
     9   2     12     13     14     50 
    10   2     13     14     15     51 
    11   1     14     15     16    704 
    12   2     11     16     15     52 
    13   3     19     18     23     17 
    14   2     18     19     20     53 
    15   2     19     20     21     54 
    16   1     20     21     22    716 
    17   2     21     22     23     55 
    18   2     18     23     22     56 
    19   2     25     24     29     57 
    20   2     24     25     26     58 
    21   3     25     26     27     30 
    22   2     26     27     28     59 
    23   2     27     28     29     60 
    24   3     24     29     28     17 
    25   1     32     31     36    685 
    26   2     31     32     33     61 
    27   2     32     33     34     62 
    28   3     33     34     35     30 
    29   2     34     35     36     63 
    30   2     31     36     35     64 
    31   3     38     37     42     30 
    32   2     37     38     39     65 
    33   2     38     39     40     66 
    34   1     39     40     41    697 
    35   2     40     41     42     67 
    36   2     41     42     37     68 
    37   2     44     43     48     69 
    38   2     43     44     45     70 
    39   1     44     45     46    691 
    40   2     45     46     47     71 
    41   2     46     47     48     72 
    42   3     47     48     43     30 
    43   1     74     73     78    656 
    44   2     73     74     75     79 
    45   2     74     75     76     80 
    46   3     75     76     77     89 
    47   2     76     77     78     81 
    48   2     73     78     77     82 
    49   2     84     83     88    121 
    50   3     83     84     85     89 
    51   2     84     85     86    122 
    52   2     85     86     87    123 
    53   1     86     87     88    680 
    54   2     83     88     87    124 
    55   3     91     90     95     89 
    56   2     90     91     92    125 
    57   2     91     92     93    126 
    58   1     92     93     94    668 
    59   2     93     94     95    127 
    60   2     90     95     94    128 
    61   2     97     96    101    129 
    62   2     96     97     98    130 
    63   3     97     98     99    102 
    64   2     98     99    100    131 
    65   2     99    100    101    132 
    66   3    100    101     96     89 
    67   1    104    103    108    710 
    68   2    103    104    105    133 
    69   2    104    105    106    134 
    70   3    105    106    107    102 
    71   2    106    107    108    135 
    72   2    103    108    107    136 
    73   3    110    109    114    102 
    74   2    109    110    111    137 
    75   2    110    111    112    138 
    76   1    111    112    113    673 
    77   2    112    113    114    139 
    78   2    113    114    109    140 
    79   2    116    115    120    141 
    80   2    115    116    117    142 
    81   1    116    117    118    661 
    82   2    117    118    119    143 
    83   2    118    119    120    144 
    84   3    119    120    115    102 
    85   1    146    145    150    715 
    86   2    145    146    147    151 
    87   2    146    147    148    152 
    88   3    147    148    149    161 
    89   2    148    149    150    153 
    90   2    145    150    149    154 
    91   2    156    155    160    193 
    92   3    155    156    157    161 
    93   2    156    157    158    194 
    94   2    157    158    159    195 
    95   1    158    159    160    650 
    96   2    155    160    159    196 
    97   3    163    162    167    161 
    98   2    162    163    164    197 
    99   2    163    164    165    198 
   100   1    164    165    166    667 
   101   2    165    166    167    199 
   102   2    166    167    162    200 
   103   2    169    168    173    201 
   104   2    168    169    170    202 
   105   3    169    170    171    174 
   106   2    170    171    172    203 
   107   2    171    172    173    204 
   108   3    168    173    172    161 
   109   1    176    175    180    638 
   110   2    175    176    177    205 
   111   2    176    177    178    206 
   112   3    177    178    179    174 
   113   2    178    179    180    207 
   114   2    175    180    179    208 
   115   3    182    181    186    174 
   116   2    181    182    183    209 
   117   2    182    183    184    210 
   118   1    183    184    185    643 
   119   2    184    185    186    211 
   120   2    185    186    181    212 
   121   2    188    187    192    213 
   122   2    187    188    189    214 
   123   1    188    189    190    662 
   124   2    189    190    191    215 
   125   2    190    191    192    216 
   126   3    191    192    187    174 
   127   1    218    217    222    632 
   128   2    217    218    219    223 
   129   2    218    219    220    224 
   130   3    219    220    221    233 
   131   2    220    221    222    225 
   132   2    221    222    217    226 
   133   2    228    227    232    265 
   134   3    227    228    229    233 
   135   2    228    229    230    266 
   136   2    229    230    231    267 
   137   1    230    231    232    644 
   138   2    227    232    231    268 
   139   3    235    234    239    233 
   140   2    234    235    236    269 
   141   2    235    236    237    270 
   142   1    236    237    238    674 
   143   2    237    238    239    271 
   144   2    238    239    234    272 
   145   2    241    240    245    273 
   146   2    240    241    242    274 
   147   3    241    242    243    246 
   148   2    242    243    244    275 
   149   2    243    244    245    276 
   150   3    240    245    244    233 
   151   1    248    247    252    703 
   152   2    247    248    249    277 
   153   2    248    249    250    278 
   154   3    249    250    251    246 
   155   2    250    251    252    279 
   156   2    247    252    251    280 
   157   3    254    253    258    246 
   158   2    253    254    255    281 
   159   2    254    255    256    282 
   160   1    255    256    257    649 
   161   2    256    257    258    283 
   162   2    253    258    257    284 
   163   2    260    259    264    285 
   164   2    259    260    261    286 
   165   1    260    261    262    679 
   166   2    261    262    263    287 
   167   2    262    263    264    288 
   168   3    259    264    263    246 
   169   1    290    289    294    602 
   170   2    289    290    291    295 
   171   2    290    291    292    296 
   172   3    291    292    293    305 
   173   2    292    293    294    297 
   174   2    293    294    289    298 
   175   2    300    299    304    337 
   176   3    299    300    301    305 
   177   2    300    301    302    338 
   178   2    301    302    303    339 
   179   1    302    303    304    626 
   180   2    303    304    299    340 
   181   3    307    306    311    305 
   182   2    306    307    308    341 
   183   2    307    308    309    342 
   184   1    308    309    310    608 
   185   2    309    310    311    343 
   186   2    306    311    310    344 
   187   2    313    312    317    345 
   188   2    312    313    314    346 
   189   3    313    314    315    318 
   190   2    314    315    316    347 
   191   2    315    316    317    348 
   192   3    312    317    316    305 
   193   1    320    319    324    698 
   194   2    319    320    321    349 
   195   2    320    321    322    350 
   196   3    321    322    323    318 
   197   2    322    323    324    351 
   198   2    323    324    319    352 
   199   3    326    325    330    318 
   200   2    325    326    327    353 
   201   2    326    327    328    354 
   202   1    327    328    329    619 
   203   2    328    329    330    355 
   204   2    329    330    325    356 
   205   2    332    331    336    357 
   206   2    331    332    333    358 
   207   1    332    333    334    613 
   208   2    333    334    335    359 
   209   2    334    335    336    360 
   210   3    331    336    335    318 
   211   1    362    361    366    584 
   212   2    361    362    363    367 
   213   2    362    363    364    368 
   214   3    363    364    365    377 
   215   2    364    365    366    369 
   216   2    361    366    365    370 
   217   2    372    371    376    409 
   218   3    371    372    373    377 
   219   2    372    373    374    410 
   220   2    373    374    375    411 
   221   1    374    375    376    595 
   222   2    375    376    371    412 
   223   3    379    378    383    377 
   224   2    378    379    380    413 
   225   2    379    380    381    414 
   226   1    380    381    382    620 
   227   2    381    382    383    415 
   228   2    378    383    382    416 
   229   2    385    384    389    417 
   230   2    384    385    386    418 
   231   3    385    386    387    390 
   232   2    386    387    388    419 
   233   2    387    388    389    420 
   234   3    384    389    388    377 
   235   1    392    391    396    686 
   236   2    391    392    393    421 
   237   2    392    393    394    422 
   238   3    393    394    395    390 
   239   2    394    395    396    423 
   240   2    395    396    391    424 
   241   3    398    397    402    390 
   242   2    397    398    399    425 
   243   2    398    399    400    426 
   244   1    399    400    401    589 
   245   2    400    401    402    427 
   246   2    397    402    401    428 
   247   2    404    403    408    429 
   248   2    403    404    405    430 
   249   1    404    405    406    625 
   250   2    405    406    407    431 
   251   2    406    407    408    432 
   252   3    403    408    407    390 
   253   1    434    433    438    692 
   254   2    433    434    435    439 
   255   2    434    435    436    440 
   256   3    435    436    437    449 
   257   2    436    437    438    441 
   258   2    437    438    433    442 
   259   2    444    443    448    481 
   260   3    443    444    445    449 
   261   2    444    445    446    482 
   262   2    445    446    447    483 
   263   1    446    447    448    590 
   264   2    443    448    447    484 
   265   3    451    450    455    449 
   266   2    450    451    452    485 
   267   2    451    452    453    486 
   268   1    452    453    454    607 
   269   2    453    454    455    487 
   270   2    450    455    454    488 
   271   2    457    456    461    489 
   272   2    456    457    458    490 
   273   3    457    458    459    462 
   274   2    458    459    460    491 
   275   2    459    460    461    492 
   276   3    456    461    460    449 
   277   1    464    463    468    578 
   278   2    463    464    465    493 
   279   2    464    465    466    494 
   280   3    465    466    467    462 
   281   2    466    467    468    495 
   282   2    463    468    467    496 
   283   3    470    469    474    462 
   284   2    469    470    471    497 
   285   2    470    471    472    498 
   286   1    471    472    473    596 
   287   2    472    473    474    499 
   288   2    473    474    469    500 
   289   2    476    475    480    501 
   290   2    475    476    477    502 
   291   1    476    477    478    614 
   292   2    477    478    479    503 
   293   2    478    479    480    504 
   294   3    479    480    475    462 
   295   1    506    505    510    577 
   296   2    505    506    507    511 
   297   2    506    507    508    512 
   298   3    507    508    509    521 
   299   2    508    509    510    513 
   300   2    505    510    509    514 
   301   2    516    515    520    553 
   302   3    515    516    517    521 
   303   2    516    517    518    554 
   304   2    517    518    519    555 
   305   1    518    519    520    583 
   306   2    515    520    519    556 
   307   3    523    522    527    521 
   308   2    522    523    524    557 
   309   2    523    524    525    558 
   310   1    524    525    526    601 
   311   2    525    526    527    559 
   312   2    522    527    526    560 
   313   2    529    528    533    561 
   314   2    528    529    530    562 
   315   3    529    530    531    534 
   316   2    530    531    532    563 
   317   2    531    532    533    564 
   318   3    528    533    532    521 
   319   1    536    535    540    637 
   320   2    535    536    537    565 
   321   2    536    537    538    566 
   322   3    537    538    539    534 
   323   2    538    539    540    567 
   324   2    539    540    535    568 
   325   3    542    541    546    534 
   326   2    541    542    543    569 
   327   2    542    543    544    570 
   328   1    543    544    545    655 
   329   2    544    545    546    571 
   330   2    541    546    545    572 
   331   2    548    547    552    573 
   332   2    547    548    549    574 
   333   1    548    549    550    631 
   334   2    549    550    551    575 
   335   2    550    551    552    576 
   336   3    547    552    551    534 

